#------------------------------------------------------------------------------
#$Date: 2024-02-05 14:09:55 +0200 (Mon, 05 Feb 2024) $
#$Revision: 289697 $
#$URL: file:///home/coder/svn-repositories/cod/cif/1/57/04/1570447.cif $
#------------------------------------------------------------------------------
#
# This file is available in the Crystallography Open Database (COD),
# http://www.crystallography.net/
#
# All data on this site have been placed in the public domain by the
# contributors.
#
data_1570447
loop_
_publ_author_name
'Sacharczuk, Natalia'
'Olejniczak, Anna'
'Bujak, Maciej'
'Dziubek, Kamil Filip'
'Katrusiak, Andrzej'
'Podsiad&#x142;o, Marcin'
_publ_section_title
;
 Conformation-aggregation interplay in the simplest aliphatic ethers
 probed under high pressure.
;
_journal_issue                   'Pt 1'
_journal_name_full               IUCrJ
_journal_page_first              57
_journal_page_last               61
_journal_paper_doi               10.1107/S2052252523009995
_journal_volume                  11
_journal_year                    2024
_chemical_formula_moiety         'C4 H10 O'
_chemical_formula_sum            'C4 H10 O'
_chemical_formula_weight         74.12
_chemical_name_systematic        'diethyl ether'
_space_group_crystal_system      triclinic
_space_group_IT_number           2
_space_group_name_Hall           '-P 1'
_space_group_name_H-M_alt        'P -1'
_atom_sites_solution_hydrogens   geom
_atom_sites_solution_primary     dual
_audit_creation_method
;
Olex2 1.5
(compiled 2022.04.07 svn.rca3783a0 for OlexSys, GUI svn.r6498)
;
_cell_angle_alpha                97.36(4)
_cell_angle_beta                 102.81(3)
_cell_angle_gamma                97.72(4)
_cell_formula_units_Z            2
_cell_length_a                   5.0182(19)
_cell_length_b                   5.575(3)
_cell_length_c                   7.136(3)
_cell_measurement_reflns_used    655
_cell_measurement_temperature    295(2)
_cell_measurement_theta_max      27.860
_cell_measurement_theta_min      4.378
_cell_volume                     190.31(15)
_computing_cell_refinement       'CrysAlisPro 1.171.42.49 (Rigaku OD, 2022)'
_computing_data_collection       'CrysAlisPro 1.171.42.49 (Rigaku OD, 2022)'
_computing_data_reduction        'CrysAlisPro 1.171.42.49 (Rigaku OD, 2022)'
_computing_molecular_graphics    'Olex2 1.5 (Dolomanov et al., 2009)'
_computing_publication_material  'Olex2 1.5 (Dolomanov et al., 2009)'
_computing_structure_refinement  'SHELXL 2018/3 (Sheldrick, 2015)'
_computing_structure_solution    'SHELXT 2018/2 (Sheldrick, 2018)'
_diffrn_ambient_environment      'diamond-anvil cell'
_diffrn_ambient_pressure         4900000
_diffrn_ambient_temperature      295(2)
_diffrn_measured_fraction_theta_full 0.250
_diffrn_measured_fraction_theta_max 0.215
_diffrn_measurement_device_type  'KUMA KM4-CCD, Eos'
_diffrn_measurement_method       '\f- and \w-scans'
_diffrn_radiation_type           MoK\a
_diffrn_radiation_wavelength     0.71073
_diffrn_reflns_av_R_equivalents  0.0950
_diffrn_reflns_av_unetI/netI     0.0422
_diffrn_reflns_Laue_measured_fraction_full 0.250
_diffrn_reflns_Laue_measured_fraction_max 0.215
_diffrn_reflns_limit_h_max       5
_diffrn_reflns_limit_h_min       -5
_diffrn_reflns_limit_k_max       6
_diffrn_reflns_limit_k_min       -6
_diffrn_reflns_limit_l_max       8
_diffrn_reflns_limit_l_min       -8
_diffrn_reflns_number            944
_diffrn_reflns_point_group_measured_fraction_full 0.250
_diffrn_reflns_point_group_measured_fraction_max 0.215
_diffrn_reflns_theta_full        25.242
_diffrn_reflns_theta_max         27.860
_diffrn_reflns_theta_min         4.378
_exptl_absorpt_coefficient_mu    0.089
_exptl_absorpt_correction_T_max  1.00000
_exptl_absorpt_correction_T_min  0.13637
_exptl_absorpt_correction_type   multi-scan
_exptl_absorpt_process_details
;
CrysAlisPro 1.171.42.49 (Rigaku Oxford Diffraction, 2022)
Empirical absorption correction using spherical harmonics,
implemented in SCALE3 ABSPACK scaling algorithm.
;
_exptl_crystal_colour            colourless
_exptl_crystal_density_diffrn    1.293
_exptl_crystal_description       disc
_exptl_crystal_F_000             84
_exptl_crystal_size_max          0.40
_exptl_crystal_size_mid          0.40
_exptl_crystal_size_min          0.20
_refine_diff_density_max         0.124
_refine_diff_density_min         -0.125
_refine_diff_density_rms         0.036
_refine_ls_extinction_method     none
_refine_ls_goodness_of_fit_ref   1.086
_refine_ls_hydrogen_treatment    constr
_refine_ls_matrix_type           full
_refine_ls_number_parameters     23
_refine_ls_number_reflns         195
_refine_ls_number_restraints     0
_refine_ls_restrained_S_all      1.086
_refine_ls_R_factor_all          0.0739
_refine_ls_R_factor_gt           0.0610
_refine_ls_shift/su_max          0.000
_refine_ls_shift/su_mean         0.000
_refine_ls_structure_factor_coef Fsqd
_refine_ls_weighting_details
'w=1/[\s^2^(Fo^2^)+(0.1287P)^2^+0.0085P] where P=(Fo^2^+2Fc^2^)/3'
_refine_ls_weighting_scheme      calc
_refine_ls_wR_factor_gt          0.1665
_refine_ls_wR_factor_ref         0.1816
_reflns_Friedel_coverage         0.000
_reflns_number_gt                153
_reflns_number_total             195
_reflns_threshold_expression     'I > 2\s(I)'
_cod_data_source_file            lq5055.cif
_cod_data_source_block           diethyl_ether_phase_delta_4_90GPa
_cod_depositor_comments
'Adding full bibliography for 1570433--1570452.cif.'
_cod_original_cell_volume        190.31(14)
_cod_database_code               1570447
_shelx_shelxl_version_number     2018/3
_shelx_space_group_comment
;
The symmetry employed for this shelxl refinement is uniquely defined
by the following loop, which should always be used as a source of
symmetry information in preference to the above space-group names.
They are only intended as comments.
;
_exptl_absorpt_special_details
;
Data were collected at room temperature (295(2) K) and pressure of 4.90(2) GPa
(4900000 kPa).
;
_olex2_refinement_description
;
1. Fixed Uiso
 At 1.2 times of:
  All C(H,H) groups
 At 1.5 times of:
  All C(H,H,H) groups
2.a Secondary CH2 refined with riding coordinates:
 C1(H11,H12), C3(H31,H32)
2.b Idealised Me refined as rotating group:
 C2(H21,H23,H22), C4(H41,H43,H42)
;
_shelx_res_file
;
TITL eter49kbar in P-1
    kamil49.res
    created by SHELXL-2018/3 at 15:09:32 on 22-Dec-2022
REM P-1 (#2 in standard setting)
CELL 0.71073 5.018196 5.575392 7.135654 97.3647 102.8144 97.719
ZERR 2 0.001948 0.002524 0.002774 0.0354 0.0332 0.035
LATT 1
SFAC C H O
UNIT 8 20 2

L.S. 50
PLAN  10
TEMP 25
CONF
BOND
MORE -1
BOND $H
fmap 2
acta
REM <olex2.extras>
REM <HklSrc "%.\\Kamil49.hkl">
REM </olex2.extras>

WGHT    0.128700    0.008500
FVAR      37.01605
O1    3    0.498719    0.204161    0.320435    11.00000    0.02538
C1    1    0.545322    0.437887    0.262991    11.00000    0.02559
AFIX  23
H11   2    0.623129    0.424073    0.149948    11.00000   -1.20000
H12   2    0.677056    0.550931    0.367720    11.00000   -1.20000
AFIX   0
C2    1    0.281360    0.533283    0.215572    11.00000    0.03021
AFIX 137
H21   2    0.155921    0.426996    0.105977    11.00000   -1.50000
H23   2    0.316270    0.695125    0.184223    11.00000   -1.50000
H22   2    0.200598    0.539633    0.325745    11.00000   -1.50000
AFIX   0
C3    1    0.746738    0.100910    0.362047    11.00000    0.02540
AFIX  23
H31   2    0.723207   -0.026309    0.440691    11.00000   -1.20000
H32   2    0.898771    0.227237    0.436653    11.00000   -1.20000
AFIX   0
C4    1    0.818448   -0.008556    0.174771    11.00000    0.03196
AFIX 137
H41   2    0.686668   -0.153869    0.113600    11.00000   -1.50000
H43   2    1.001199   -0.049546    0.205957    11.00000   -1.50000
H42   2    0.812374    0.109210    0.087502    11.00000   -1.50000
AFIX   0
HKLF 4




REM  eter49kbar in P-1
REM wR2 = 0.1816, GooF = S = 1.086, Restrained GooF = 1.086 for all data
REM R1 = 0.0610 for 153 Fo > 4sig(Fo) and 0.0739 for all 195 data
REM 23 parameters refined using 0 restraints

END

WGHT      0.1287      0.0085

REM Highest difference peak  0.124,  deepest hole -0.125,  1-sigma level  0.036
Q1    1   0.5434  0.2179  0.3214  11.00000  0.05    0.12
Q2    1   0.5137  0.2383  0.3777  11.00000  0.05    0.12
Q3    1   0.7199 -0.0856  0.0980  11.00000  0.05    0.11
Q4    1   0.6180  0.3155  0.4395  11.00000  0.05    0.11
Q5    1   0.3410  0.5999  0.2744  11.00000  0.05    0.10
Q6    1   0.8410  0.1306  0.3655  11.00000  0.05    0.10
Q7    1   1.0408  0.1239  0.1595  11.00000  0.05    0.10
Q8    1   0.7606  0.0789  0.3193  11.00000  0.05    0.09
Q9    1   0.5857 -0.1804  0.0279  11.00000  0.05    0.09
Q10   1   0.1278  0.7148  0.3000  11.00000  0.05    0.09
;
_shelx_res_checksum              18260
_shelx_hkl_file
;
   0  -1   3 2723.80  663.69
   0  -1   3 2676.06  701.44
   0  -1   3 2404.80  533.85
   0  -1   274255.70 1040.47
   0   1  -280334.45  964.21
   0  -1   283804.02  969.66
   0  -1   268803.85  842.29
   0  -1   283025.43 1018.91
   0  -1   274602.58 1034.41
   0  -1   1 203647.   1122.
   0  -1   1 200149.   1181.
   0  -1   1 196411.   1083.
   0  -1   1 197620.   1086.
   0   2  -5 1711.65  854.84
   0  -2   5 2594.58  758.50
   0   2  -453754.72 1638.95
   0  -2   461772.77 1520.95
   0  -2   467570.84 1939.55
   0  -2   461703.87 1875.24
   0   2  -459300.36 2052.08
   0  -2   387286.66 1583.12
   0  -2   389011.13 1852.95
   0  -2   395808.57 1703.64
   0   2  -393766.52 2031.49
   0   2  -384995.39 1933.98
   0   2  -3 101209.   1720.
   0  -2   384937.23 1065.89
   0  -2   3 102612.   1676.
   0  -2   390378.06 1843.57
   0   2  -2 111644.   1400.
   0  -2   2 528771.   2660.
   0  -2   2 511607.   2832.
   0  -2   2 463484.   1925.
   0  -2   2 501522.   2579.
   0   2  -2 533343.   2990.
   0  -2   2 501891.   2668.
   0   2  -2 546094.   2906.
   0   2  -2 497632.   2032.
   0  -2   1 296130.   2318.
   0  -2   1 303820.   2275.
   0  -2   1 291509.   2243.
   0  -2   1 318184.   2189.
   0   3  -6 1755.10 1122.32
   0  -3   6 1809.60 1250.15
   0  -3   518707.23 1808.55
   0   3  -516858.07 1910.03
   0  -3   523287.35 1652.69
   0   3  -515867.04 1857.46
   0  -3   520334.13 2465.42
   0  -3   520923.49 2083.23
   0   3  -515016.37 2087.53
   0  -3   4  413.39  575.32
   0  -3   4   37.38  578.59
   0  -3   4   77.15  366.56
   0   3  -4  274.02  346.03
   0  -3   4  318.59  415.71
   0   3  -4  326.67  446.51
   0  -3   373050.87 2013.06
   0   3  -376601.04 2073.86
   0  -3   371800.39 1766.44
   0   3  -374220.20 2260.41
   0  -3   377799.95 1865.79
   0  -3   251130.46 1452.58
   0   3  -249127.28 2094.70
   0  -3   249868.64 1693.16
   0   3  -254738.61 1975.49
   0  -3   249356.21 1104.86
   0   3  -242047.72 1007.42
   0  -3   254200.76 1827.41
   0  -3   253923.80 1769.95
   0   4  -644158.75 3115.79
   0  -4   642520.71 3218.18
   0   4  -653619.48 3043.96
   0  -4   654452.65 3154.21
   0  -4   5  585.58  862.54
   0  -4   5  618.41  862.67
   0  -4   5  604.95  742.26
   0   4  -5  656.23  740.71
   0  -4   4 4236.42 1535.55
   0  -4   4 4058.91 1379.00
   0  -4   3 1531.60  960.46
   0   4  -3 1424.42  877.95
   0  -4   3 1602.98 1046.25
   0  -5   7 1544.38 1714.72
   0   5  -7 1557.95 1420.28
   0  -5   7 2078.64 1562.76
   0   5  -6 1037.89 1271.86
   0  -5   6 1178.81 1358.90
   0  -5   5 4463.48 1638.51
   0  -5   5 1605.05  989.90
   0   5  -5  900.02 1103.52
   0  -5   5 2828.87 1367.28
   0   5  -5 1925.62 1023.51
  -1   6  -519632.40 2798.79
   1  -6   522997.60 3268.39
  -1   6  -522115.78 3125.46
   1  -6   524888.84 3284.19
  -1   6  -520445.95 3112.05
   1  -6   523891.57 3140.98
   1  -5   326159.10 2304.34
  -1   5  -326242.20 2565.61
  -1   5  -457628.71 2775.49
   1  -5   459841.92 3182.66
   1  -5   462603.46 3327.68
   1  -5   456245.34 2777.18
  -1   5  -464260.47 3345.06
  -1   5  -458518.98 3168.16
   1  -5   512309.93 2509.65
  -1   5  -5 8789.62 1932.99
   1  -5   5 9942.43 2094.68
   1  -5   5 9384.74 2040.13
  -1   5  -5 8502.29 2056.03
   1  -5   6  721.52 1219.60
   1  -5   6  709.23  958.33
   1  -4   186070.55 2678.96
   1  -4   187981.86 2476.92
  -1   4  -190469.34 2760.77
   1  -4   210909.96 1608.87
   1  -4   2 9701.20 1457.32
  -1   4  -2 8520.18 1516.88
   1  -4   210980.24 1542.20
   1  -4   210397.18 1399.28
  -1   4  -210795.62 1719.89
   1  -4   3 124307.   2910.
  -1   4  -3 126802.   3199.
   1  -4   3 127149.   3001.
   1  -4   3 124607.   3141.
  -1   4  -3 123576.   3112.
   1  -4   456287.38 2483.20
  -1   4  -457674.72 2800.46
   1  -4   453063.21 2745.15
   1  -4   451298.58 2467.03
  -1   4  -453433.04 2417.68
  -1   4  -451582.73 2643.57
   1  -4   453178.77 2468.06
  -1   4  -454232.58 2780.77
  -1   4  -5 3705.48 1540.51
   1  -4   5 9256.77 1761.54
   1  -4   5 8462.10 1801.05
  -1   4  -5 5259.38 1394.08
   1  -4   5 6690.02 2005.77
  -1   4  -5 4525.31 1709.85
   1  -3   015436.46 1243.12
  -1   3   013971.32 1637.01
   1  -3   014221.12 1349.71
   1  -3   015280.64 1282.07
   1  -3   144952.71 1475.75
   1  -3   139386.24 1579.54
   1  -3   141809.30 1025.32
   1  -3   142683.67 1458.76
   1  -3   138627.27 1418.75
  -1   3  -142491.84 1689.84
  -1   3  -2 1915.06  817.12
   1  -3   2 1980.29  639.18
   1  -3   2 1568.61  667.23
   1  -3   2 1662.35  633.90
   1  -3   3  806.72  519.66
   1  -3   3  754.20  686.71
  -1   3  -3  841.77  772.04
   1  -3   4  924.12  967.82
  -1   3  -4  986.21  740.07
   1  -2  -1 7765.84  767.33
   1  -2  -1 8973.99  824.91
   1  -2   032618.60  900.23
   1  -2   034807.29 1001.30
   1  -2   035410.98  970.30
   1  -2   031895.93  760.70
  -1   2   035152.15  872.27
   1  -2   135115.62  986.91
   1  -2   135670.30  892.37
   1  -2   133761.48  938.89
   1  -2   136038.83  661.57
   1  -2   135461.82  987.26
   1  -2   214102.33 1133.89
   1  -2   212833.39 1002.89
   1  -2   212053.27 1154.56
   1  -2   212370.01  841.72
   1  -2   211259.31  538.42
   1  -2   3  556.37  659.21
  -1   2  -3  558.99  571.68
  -1   1   2 454590.   2726.
   1  -1  -2 420746.   2700.
   1  -1  -2 424746.   2655.
   1  -1  -1   52.76  128.42
   1  -1  -1   43.62  104.08
   1  -1  -1   46.48   76.78
  -1   1   1   63.79  123.96
   1  -1   0 6525.93  383.21
   1  -1   0 5788.51  307.29
   1  -1   0 5760.01  347.44
   1  -1   0 6205.00  344.39
   1  -1   0 7402.58  325.52
   1  -1   1 237214.   1891.
   1   0  -415614.74 1493.65
  -1   0   416511.37 1415.72
   1   0  -413657.55 1271.33
   1   0  -415177.47 1480.91
  -1   0   414181.21 1460.29
   1   0  -3 698166.   3399.
  -1   0   3 631925.   3365.
   1   0  -3 628585.   3389.
  -1   0   3 732143.   3615.
   1   0  -2 490788.   2226.
  -1   0   2 493997.   2219.
   1   0  -2 521396.   2184.
  -1   0   2 524251.   1766.
   1   0  -2 589641.   1902.
  -1   0   2 573733.   2291.
  -1   0   1 3488.27  268.56
   1   0  -1 3305.78  290.12
  -1   0   1 3251.17  259.76
   1   1  -596898.75 2570.76
  -1  -1   5 102089.   2622.
   1   1  -598596.70 2615.48
  -1  -1   593046.31 2368.15
   1   1  -5 102137.   2732.
  -1  -1   5 109936.   2491.
  -1  -1   4 1384.72  740.21
  -1  -1   4 2093.99  771.73
   1   1  -4 1600.75  913.74
  -1  -1   4  680.27  529.90
   1   1  -4  422.75  399.11
  -1  -1   4  204.72  270.71
   1   1  -4  677.04  625.70
  -1  -1   4 1789.92  604.08
  -1  -1   4 1207.43  347.25
  -1  -1   3  240.74  150.48
   1   1  -3 3190.01  574.91
   1   1  -3 3116.00  434.78
  -1  -1   3 2069.32  539.38
   1   1  -3 3595.90  475.91
   1   1  -3 1412.94  650.49
  -1  -1   3 7308.07  508.80
  -1  -1   3 7206.28  772.50
  -1  -1   3 7086.36  819.94
   1   1  -3 4699.89  859.73
  -1  -1   3 6017.11  722.16
  -1  -1   3 6335.37  523.52
   1   1  -3 6990.64  849.80
   1   1  -3 5340.96  592.85
  -1  -1   258076.03 1026.83
  -1  -1   260748.74 1156.66
   1   1  -250709.57  996.81
  -1  -1   253570.41  982.26
   1   1  -255965.20  873.43
  -1  -1   255877.47  745.07
  -1  -2   676303.82 2918.60
  -1  -2   674632.41 2675.44
   1   2  -675571.05 3130.95
  -1  -2   676101.22 3051.37
  -1  -2   674414.62 3030.79
  -1  -2   526626.72 1652.96
   1   2  -526159.07 1902.78
  -1  -2   528448.03 1754.38
  -1  -2   527851.42 1892.51
  -1  -2   4 145677.   1841.
   1   2  -4 141900.   2486.
  -1  -2   4 148729.   2244.
  -1  -2   4 162742.   2578.
  -1  -2   4 137398.   2245.
   1   2  -4 135345.   2641.
  -1  -2   4 132328.   2335.
   1   2  -4 138841.   2351.
   1   2  -4 125749.   2111.
  -1  -2   4 176501.   2106.
   1   2  -4 176227.   2240.
  -1  -2   356153.93 1429.32
   1   2  -368925.45 2023.57
   1   2  -363840.51 2014.72
  -1  -2   361386.98 1651.73
  -1  -2   360538.57 1773.10
   1   2  -352832.27 1411.64
  -1  -2   356923.85 1154.17
   1   2  -354070.80 1014.96
  -1  -2   342889.11 1379.62
  -1  -3   7 1425.24 1103.68
  -1  -3   7 1344.23 1119.43
   1   3  -7 1313.07 1209.66
   1   3  -6  789.23 1090.85
   1   3  -6  821.11 1026.77
  -1  -3   6 1593.54 1217.42
  -1  -3   6  327.56  944.54
   1   3  -521000.12 1670.66
  -1  -3   519388.45 1853.54
   1   3  -519908.73 1907.88
   1   3  -521932.03 2198.72
  -1  -3   523783.40 1611.45
   1   3  -514971.29 1721.35
  -1  -3   528154.55 2195.28
  -1  -3   523938.55 2073.59
   1   3  -475763.78 2053.61
  -1  -3   480872.40 2032.01
   1   3  -474471.88 2617.19
  -1  -3   477828.45 2347.02
  -1  -3   470191.57 2283.50
  -1  -3   472370.41 1912.20
   1   3  -475770.04 2600.09
  -1  -4   8 1049.37 1541.84
   1   4  -8  815.06 1305.62
   1   4  -8  577.35 1136.26
  -1  -4   7 2426.60 1463.69
   1   4  -7 1324.10 1215.13
  -1  -4   7 2145.85 1490.50
   1   4  -7 3177.03 1763.78
   1   4  -6  648.78  961.33
  -1  -4   6  559.05  935.26
   1   4  -5  338.33  657.67
  -1  -4   5  365.79  807.61
   1   5  -7 2285.90 1829.84
  -1  -5   7 2642.02 1689.06
  -2   6  -310630.36 2419.06
  -2   6  -312768.13 2271.89
   2  -6   315014.63 2317.65
   2  -6   318689.01 2742.60
   2  -6   320145.84 3180.42
   2  -6   4 3390.04 1896.87
  -2   6  -4 1440.63 1372.81
   2  -6   4 1883.71 1425.49
  -2   6  -4 1879.91 1383.15
  -2   6  -518348.49 2859.42
  -2   6  -522395.52 2708.49
  -2   6  -522307.96 3444.27
   2  -5   1 4683.56 1827.90
   2  -5   1 4212.04 1523.37
  -2   5  -1 3627.69 1741.40
  -2   5  -1 4371.97 1754.91
   2  -5   1 7709.32 1828.13
   2  -5   1 6536.32 1744.77
  -2   5  -228710.04 2702.95
  -2   5  -226570.75 2772.89
  -2   5  -227740.56 2332.10
   2  -5   226111.47 2439.31
  -2   5  -230045.14 2477.92
   2  -5   228007.21 2262.73
   2  -5   227841.20 2681.50
   2  -5   3 7117.85 1739.76
   2  -5   3 8724.11 2186.58
  -2   5  -4 1193.84 1111.58
   2  -5   4 1249.06 1202.72
  -2   5  -4 1389.96 1376.47
  -2   5  -4  946.12 1076.74
   2  -5   4 1678.00 1105.45
   2  -5   4 1496.15 1300.94
   2  -4   0 1659.12  875.42
   2  -4   0 1749.93  930.79
  -2   4   0  932.92  711.68
  -2   4   0  156.01  491.64
  -2   4  -1 155656.   3346.
  -2   4  -1 169871.   3192.
  -2   4  -1 167084.   3311.
   2  -4   1 171095.   3035.
   2  -4   1 159080.   3115.
   2  -4   1 151635.   3264.
  -2   4  -2 135700.   3260.
  -2   4  -2 146832.   3194.
  -2   4  -2 154159.   3129.
   2  -4   2 138998.   3149.
   2  -4   2 147825.   3098.
   2  -4   2 145317.   3057.
   2  -4   2 127909.   2985.
   2  -4   399557.38 3269.96
  -2   4  -3 106050.   3150.
   2  -4   3 101463.   2609.
   2  -4   3 105179.   2947.
  -2   4  -3 102703.   3471.
   2  -4   3 106269.   3254.
   2  -3  -2 107234.   2195.
  -2   3   2 104492.   2674.
   2  -3  -293738.95 2663.83
  -2   3   2 102392.   2166.
   2  -3  -297903.09 2314.66
   2  -3  -1  506.64  496.84
  -2   3   1  650.87  547.36
  -2   3   1  444.86  417.44
   2  -3  -1  400.22  610.53
  -2   3   0  437.50  381.32
  -2   3   0  413.98  328.54
  -2   3   0  218.11  289.85
   2  -3   110602.89 1220.22
   2  -3   1 9922.08 1240.16
  -2   3  -110633.48 1085.01
   2  -3   110326.09  840.09
   2  -3   111136.69 1548.43
   2  -3   111534.36 1237.95
  -2   3  -281640.61 2604.18
   2  -3   278096.86 2227.21
  -2   3  -290061.52 2396.03
   2  -3   282364.56 2118.11
   2  -3   288681.30 2390.42
   2  -3   278862.61 2285.43
   2  -2  -3 1787.85  968.00
  -2   2   3 1513.51 1031.31
   2  -2  -3 1659.55  577.12
   2  -2  -2 4322.20  928.22
  -2   2   2 3291.65  923.15
  -2   2   2 4826.80  927.98
   2  -2  -2 4076.49  921.03
   2  -2  -2 5992.86 1010.78
  -2   2   2 2827.17  758.20
   2  -2  -2 3679.99  631.80
   2  -2  -2 4254.82  756.76
   2  -2  -137520.12 1492.05
   2  -2  -135954.18 1157.10
   2  -2  -139528.06 1432.57
  -2   2   139337.28 1643.68
  -2   2   137296.11 1456.81
  -2   2   138012.51 1128.17
   2  -2  -133741.96  944.17
   2  -2  -137966.92 1554.56
   2  -2  -136269.46 1271.01
  -2   2   0 631334.   3778.
   2  -2   0 585485.   3649.
   2  -2   0 479340.   3175.
   2  -2   0 500801.   3071.
   2  -2   0 514507.   3393.
  -2   2   0 269764.   2522.
  -2   2   0 135007.   2052.
  -2   2   0 537209.   2176.
   2  -2   1 6874.22  819.10
   2  -2   1 5487.67 1098.25
   2  -2   1 5534.42  944.87
  -2   2  -1 4089.34  985.00
  -2   2  -1 6663.40 1278.96
   2  -2   1 6970.37 1074.48
   2  -1  -4  491.00  452.07
  -2   1   4  469.78  593.23
  -2   1   4  250.39  420.84
   2  -1  -4  436.63  508.96
   2  -1  -319373.57 1411.28
  -2   1   319227.19 1305.03
  -2   1   319428.91  990.51
   2  -1  -319054.28 1329.83
  -2   1   2  388.37  160.80
   2  -1  -2 4216.30  521.07
  -2   1   2 3668.59  685.30
   2  -1  -212337.78  701.38
  -2   1   212967.45 1084.78
   2  -1  -212825.06 1024.50
  -2   1   214289.18 1125.95
  -2   1   2 9289.31  588.83
   2  -1  -210250.45  966.66
  -2   1   211821.25  951.90
   2  -1  -210938.73 1145.89
   2  -1  -2 7337.43  859.95
   2  -1  -210668.25  697.59
  -2   1   195231.26 1420.91
  -2   1   187693.56 1407.05
  -2   1   1 109565.   1499.
   2  -1  -1 255879.   1827.
   2  -1  -1 303529.   2362.
  -2   1   1 304391.   1640.
  -2   1   1 303004.   2105.
   2  -1  -1 303377.   2130.
   2  -1  -1 304605.   2483.
   2   0  -6 6780.64 1935.09
  -2   0   6 9374.28 1579.98
  -2   0   610149.10 2295.08
   2   0  -6 8092.17 1565.60
   2   0  -6 8327.14 1798.79
  -2   0   6 7739.31 1739.09
  -2   0   579631.34 2288.83
  -2   0   579176.58 2518.72
   2   0  -575975.45 2341.50
   2   0  -579977.01 2804.27
   2   0  -4 139681.   2528.
  -2   0   4 144816.   2288.
  -2   0   4 133489.   2262.
   2   0  -4 143209.   2318.
  -2   0   4 138274.   2129.
   2   0  -4 148092.   2807.
   2   0  -4 134022.   2269.
   2   0  -3 145156.   1675.
  -2   0   3 153437.   2588.
  -2   0   3 125938.   1254.
  -2   0   3 141122.   1852.
   2   0  -3 144166.   2185.
   2   0  -3 148309.   2262.
  -2   0   3 154020.   2159.
   2   0  -291497.83 1360.92
   2   0  -291559.77 1698.97
  -2   0   2 101783.   1543.
  -2   0   297611.84 1642.22
   2   0  -298608.81 1695.58
  -2  -1   7  608.14  664.82
   2   1  -7 1139.18 1086.91
   2   1  -7  397.51  832.58
   2   1  -6 1007.34 1015.38
  -2  -1   6 2884.53 1520.88
   2   1  -6 2927.07 1248.30
  -2  -1   6 4663.14 1501.19
  -2  -1   6 3681.09 1414.46
   2   1  -6 1920.99 1201.84
   2   1  -5  577.89  610.13
   2   1  -5  789.21  730.80
  -2  -1   5  351.07  377.59
   2   1  -5  307.51  374.83
  -2  -1   5  834.54 1077.37
   2   1  -5 1219.78  904.90
  -2  -1   5  806.77  806.69
  -2  -1   5 1169.16  628.95
  -2  -1   5 2502.27 1053.70
   2   1  -5  751.55  885.89
  -2  -1   455220.91 1838.11
   2   1  -444104.18 1698.57
   2   1  -461645.81 1715.69
  -2  -1   457102.50 1943.76
   2   1  -451689.79 1939.77
  -2  -1   455302.75 1451.49
  -2  -1   452600.86 1715.25
   2   1  -452687.85 2090.96
   2   1  -445712.38 1479.32
   2   1  -323133.57  855.93
   2   1  -329542.94 1313.10
   2   1  -325907.00 1425.81
  -2  -1   332557.70 1180.41
  -2  -1   328261.35 1432.12
   2   1  -323469.66 1379.00
  -2  -1   328644.58 1394.40
   2   2  -825550.50 2969.72
  -2  -2   716554.14 2403.28
  -2  -2   718277.75 2555.74
   2   2  -719854.77 2596.07
   2   2  -711797.88 2004.43
  -2  -2   721951.68 2650.69
   2   2  -714319.31 2146.34
   2   2  -6 191883.   3986.
  -2  -2   6 179005.   3712.
   2   2  -6 191885.   4482.
  -2  -2   6 176931.   3476.
  -2  -2   6 164844.   3837.
   2   2  -6 162640.   3862.
  -2  -2   6 189824.   3687.
   2   2  -5 1320.69  978.79
  -2  -2   5  663.42  723.42
   2   2  -5  874.10  993.30
  -2  -2   5  308.78  392.36
  -2  -2   5  412.38  730.36
   2   2  -5  978.75  916.01
   2   2  -5  587.19  774.52
   2   2  -4 113388.   2978.
  -2  -2   4 122386.   2352.
   2   2  -499675.55 2859.87
  -2  -2   4 115089.   2710.
  -2  -2   4 117232.   2793.
   2   2  -497572.29 2521.70
  -2  -2   4 109179.   2341.
   2   3  -8 2247.90 1574.54
  -2  -3   810860.01 2520.23
   2   3  -751263.32 3292.19
  -2  -3   735676.62 2727.40
   2   3  -741375.38 3269.02
  -2  -3   756408.07 3272.71
  -2  -3   755899.34 3216.22
  -2  -3   750504.39 3369.25
   2   3  -6 6916.08 1689.72
  -2  -3   6 7027.84 1632.93
  -2  -3   6 3018.38 1674.57
   2   3  -6 5889.13 1769.64
  -2  -3   6 5843.76 1532.60
   2   3  -6 1934.01 1327.81
   2   3  -6 4203.90 1502.30
  -2  -3   6 4682.82 1758.03
   2   3  -5 161483.   3651.
   2   3  -5 175360.   4006.
  -2  -3   5 143066.   3041.
  -2  -3   5 151812.   3351.
  -2  -3   5 132655.   3576.
   2   4  -7 2792.97 1875.48
  -2  -4   7 3827.54 1576.45
  -3   6  -1 1201.89 1453.99
  -3   6  -1  200.36  741.42
   3  -6   1  675.05 1214.61
  -3   6  -2 1113.64 1139.67
  -3   6  -2 2053.61 1640.04
  -3   6  -2 1968.34 1448.36
   3  -6   2 3289.65 1573.01
   3  -6   2 4020.94 1735.17
   3  -6   2 2623.51 1420.83
  -3   6  -3 6090.70 2126.87
  -3   6  -3 2936.15 1899.60
   3  -6   3 2088.89 1988.55
   3  -6   3 4974.57 2202.90
   3  -5  -1 4791.39 1734.59
   3  -5  -1 3847.75 1614.29
  -3   5   055047.98 3185.10
  -3   5   044413.30 2784.25
  -3   5   054171.12 2996.31
   3  -5   055253.01 3251.68
   3  -5   053555.77 3053.74
   3  -5   060569.02 3318.63
  -3   5  -1  221.52  683.42
   3  -5   1   81.65  617.09
   3  -5   1  158.15 1026.48
  -3   5  -2 3199.83 1771.73
  -3   5  -2 2283.05 1350.06
  -3   5  -2 4741.98 1515.59
   3  -5   2 2836.36 1382.51
   3  -5   2 4883.78 2200.76
  -3   5  -3 1352.84 1079.38
   3  -5   3 1198.06 1284.88
   3  -5   3 1484.63 1260.67
  -3   4   227635.37 2188.58
   3  -4  -229744.89 2682.46
   3  -4  -231376.53 2270.45
   3  -4  -1 175498.   3284.
  -3   4   1 146269.   3396.
  -3   4   1 156919.   3488.
  -3   4   1 152332.   3313.
  -3   4   1 159780.   3594.
   3  -4  -1 138059.   3237.
  -3   4   0  981.59 1080.88
  -3   4   0  641.25  737.24
   3  -4   0  716.08  746.19
  -3   4   0 1407.71  729.04
   3  -4   0 1511.66 1009.38
   3  -4   0 1745.65  996.17
  -3   4  -166569.05 2924.40
  -3   4  -162555.26 2509.77
   3  -4   158767.32 2577.38
   3  -4   163660.80 2897.98
   3  -4   164245.03 2785.09
  -3   4  -212458.43 1852.66
   3  -4   212191.50 2022.04
   3  -4   214018.18 1969.45
   3  -4   215522.40 2263.78
  -3   3   315104.53 1891.89
   3  -3  -314383.84 1774.45
   3  -3  -316439.85 1668.08
  -3   3   225802.24 1741.92
  -3   3   228748.88 2073.31
  -3   3   226731.24 2003.01
  -3   3   227830.83 2036.99
   3  -3  -225446.34 2306.10
   3  -3  -227265.81 1802.93
   3  -3  -224900.01 1793.01
  -3   3   1 7046.30 1186.12
  -3   3   1 6473.10 1520.04
  -3   3   1 5946.71 1362.46
  -3   3   1 9402.09 1545.42
   3  -3  -1 5284.33 1319.99
   3  -3  -1 7608.33 1307.13
   3  -3  -1 6513.43 1218.43
   3  -3  -1 5473.09 1128.75
  -3   3   011128.37 1406.00
   3  -3   013763.56 1731.00
   3  -3   012695.22 1623.73
   3  -3   010418.23 1323.16
   3  -3   012634.40 1398.72
   3  -3   176188.55 2539.34
   3  -3   168810.44 2158.25
   3  -3   173156.63 2574.40
   3  -2  -571864.79 3404.61
  -3   2   571729.63 3175.07
  -3   2   557537.45 2793.89
   3  -2  -569807.29 3185.68
   3  -2  -4  271.84  447.45
   3  -2  -4  263.85  610.31
  -3   2   4   49.21  330.32
   3  -2  -4  195.52  399.65
   3  -2  -3 346227.   3565.
  -3   2   3 335256.   3888.
  -3   2   3 343808.   3736.
  -3   2   3 333810.   3608.
   3  -2  -3 350406.   4036.
   3  -2  -3 330481.   3683.
   3  -2  -3 316819.   3828.
  -3   2   3 345207.   3541.
  -3   2   251426.99 2057.35
  -3   2   250092.99 1828.83
  -3   2   246669.71 1483.16
  -3   2   251455.31 2106.92
   3  -2  -247750.61 1859.86
   3  -2  -248149.99 1909.71
   3  -2  -251159.83 1705.37
   3  -2  -244805.89 2034.73
   3  -2  -248088.56 1518.49
   3  -2  -245662.28 1542.94
  -3   2   1 127445.   2539.
  -3   2   1 105846.   2301.
   3  -2  -1 108627.   2420.
   3  -2  -199793.57 1787.96
  -3   2   1 103746.   1817.
   3  -2  -1 100908.   2349.
   3  -2  -1 100201.   1922.
   3  -1  -6 4593.56 1711.47
  -3   1   6 1119.94 1313.51
  -3   1   6 1398.34  997.04
   3  -1  -6  376.63  856.27
  -3   1   6  993.97 1132.28
   3  -1  -6 1343.25 1321.77
   3  -1  -5 5218.67 1683.52
  -3   1   5 6657.62 1880.64
   3  -1  -5 9345.97 1959.29
  -3   1   5 7313.41 1481.87
  -3   1   5 6657.90 1689.45
   3  -1  -5 7369.34 1613.89
   3  -1  -410896.23 1644.54
  -3   1   414206.61 1886.37
  -3   1   4 7179.02 1121.77
  -3   1   4 9594.08 1608.35
  -3   1   410667.39 1526.97
   3  -1  -413325.32 1506.81
   3  -1  -4 8430.30 1421.13
   3  -1  -412215.87 1656.36
  -3   1   3  234.86  390.62
  -3   1   3  346.21  445.78
  -3   1   3  636.87  551.83
   3  -1  -3  561.50  653.43
   3  -1  -3  449.80  542.46
   3  -1  -3  254.34  477.29
  -3   1   212107.56 1287.26
   3  -1  -213079.32 1254.57
  -3   1   212817.51  832.82
   3  -1  -213823.44 1394.64
  -3   1   213067.31 1184.26
   3  -1  -212767.10 1410.55
   3  -1  -211829.54  880.50
   3   0  -7 1318.26 1422.40
   3   0  -7 2115.91 1146.18
  -3   0   7 2181.02 1369.73
  -3   0   7  372.88  748.18
  -3   0   7  763.65  977.92
   3   0  -7  530.36  883.64
   3   0  -6 6223.74 1689.11
  -3   0   6 4595.84 1363.58
  -3   0   6 6780.61 1654.94
   3   0  -6 5835.89 1765.30
  -3   0   6 2686.75 1367.63
   3   0  -6 7198.66 1500.02
  -3   0   6 8323.73 1890.99
   3   0  -6 3641.77 1356.52
  -3   0   5 2221.40 1153.65
   3   0  -5 1842.63 1013.71
  -3   0   5 2353.73 1071.93
   3   0  -5 2858.01 1214.59
  -3   0   4 4117.23 1097.69
   3   0  -4 5496.14 1182.59
  -3   0   4 8546.37 1188.85
   3   0  -4 4801.90 1414.51
  -3   0   4 6756.70 1436.71
   3   0  -4 6878.76 1499.90
   3   0  -4 6545.36 1315.21
  -3   0   4 6511.74 1284.72
  -3   0   3 1611.38 1062.07
   3   0  -3 3710.12  815.15
   3   0  -3  514.25  726.91
  -3   0   3 4614.47  971.37
   3   0  -3 6310.84 1378.09
  -3   0   3 4588.82 1098.81
   3   0  -3 4037.26 1219.96
  -3  -1   8 4430.15 1618.22
   3   1  -8 2977.56 1693.72
   3   1  -8 2638.27 1499.54
  -3  -1   8 2103.58 1405.48
   3   1  -8 1897.93 1493.61
  -3  -1   8 2039.06 1316.20
   3   1  -7  654.70 1202.90
  -3  -1   7  662.73  886.73
  -3  -1   7  696.46  931.39
   3   1  -7  440.16  824.79
   3   1  -6  994.19  799.74
  -3  -1   6 1080.95 1170.59
  -3  -1   6 1225.14 1012.85
   3   1  -6  688.19 1006.20
  -3  -1   6  332.91  752.09
   3   1  -6  797.61 1068.33
  -3  -1   5 7840.29 1453.02
  -3  -1   5 6173.79 1785.99
   3   1  -5 7008.13 1771.95
   3   1  -5 4024.56 1589.19
   3   1  -5 7730.45 1645.96
  -3  -2   8 3880.90 1839.49
   3   2  -8 4152.85 1988.28
  -3  -2   8 5426.23 2042.85
  -3  -2   7 2593.96 1252.74
  -3  -2   7 2288.66 1478.66
  -3  -2   6 3395.89 1339.88
  -3  -2   6 2171.46 1244.50
   3   2  -6 3014.39 1538.41
   3   2  -6 2354.07 1399.44
  -3  -2   6 3308.03 1438.45
   3   2  -6 2752.14 1294.20
  -3  -3   8  453.52 1051.36
  -4   6   0 6182.02 2201.88
   4  -6   0 9107.84 1915.54
   4  -6   0 5021.56 1584.77
   4  -6   0 1341.15 1051.45
  -4   6  -1 2516.07 1348.42
  -4   6  -1 3070.44 1496.47
   4  -6   1 2799.40 1642.83
   4  -6   1 3908.96 1702.18
  -4   5   2  448.88 1026.16
  -4   5   2 2211.21 1236.30
   4  -5  -2 1032.76 1371.56
  -4   5   1  796.30  976.97
  -4   5   1 1149.25 1089.41
  -4   5   1 1041.79 1108.46
   4  -5  -1  899.69 1195.52
   4  -5  -1  566.60  912.12
  -4   5   0  309.05  923.59
  -4   5   0  330.87  711.18
  -4   5  -1 7561.92 2190.71
   4  -5   1 8943.85 2358.53
   4  -5   1 8115.75 2123.92
  -4   5  -1 3334.11 1541.36
  -4   5  -1 3800.01 1447.54
   4  -5   1 4702.70 1525.48
  -4   4   4 2237.82 1484.40
   4  -4  -310459.29 1880.10
  -4   4   312622.28 2372.14
   4  -4  -317774.82 2322.08
   4  -4  -2  469.97  984.81
  -4   4   2  456.65  686.48
  -4   4   130200.09 2541.05
  -4   4   128734.82 2471.44
   4  -4  -127189.66 2743.33
   4  -4  -132691.63 2627.12
   4  -4  -128714.02 2317.11
   4  -4  -130014.59 2564.67
  -4   4   0 1267.24 1122.47
   4  -4   0  863.85 1213.39
   4  -4   0 2130.79 1208.28
   4  -3  -513490.89 2666.15
  -4   3   5 8644.80 2142.61
  -4   3   5 9013.32 2024.64
   4  -3  -4  654.26 1355.81
  -4   3   4  595.35  942.11
  -4   3   4  140.27  595.31
  -4   3   3  103.42  759.38
  -4   3   3  267.81  552.00
   4  -3  -3 2085.17 1232.91
   4  -3  -3  561.79  892.22
  -4   3   238409.16 2776.43
  -4   3   235664.89 2178.67
   4  -3  -239921.33 2804.10
   4  -3  -245284.57 2924.06
   4  -3  -1 2230.72 1264.46
   4  -3  -1 2251.68 1329.05
   4  -2  -6 5337.12 1801.54
  -4   2   6 9275.05 2418.49
  -4   2   6 7189.03 2061.44
   4  -2  -6 5655.15 1814.53
   4  -2  -6 5406.21 2018.48
  -4   2   6 4282.80 1959.33
   4  -2  -570133.02 3510.65
  -4   2   567760.30 2927.10
  -4   2   575050.12 3159.72
   4  -2  -564218.13 3322.36
   4  -2  -411412.14 1921.64
  -4   2   411687.92 2195.66
  -4   2   415559.00 2053.05
  -4   2   412874.53 1805.95
   4  -2  -417559.17 2311.32
  -4   2   413898.04 1971.68
   4  -2  -411090.73 1812.29
   4  -2  -418789.43 2494.32
  -4   2   392156.25 3070.21
  -4   2   391514.23 2622.53
  -4   2   3 109689.   3172.
   4  -2  -391091.11 3040.05
   4  -2  -389601.66 3265.39
   4  -2  -382515.53 2711.33
   4  -1  -7  813.64 1215.53
  -4   1   7  923.86 1017.21
   4  -1  -7  841.49 1235.08
   4  -1  -7 1683.65 1369.80
  -4   1   7 1812.53 1545.44
   4  -1  -6 2242.53 1659.98
  -4   1   6 2951.67 1950.03
   4  -1  -6 2720.10 1305.91
  -4   1   6 2455.56 1426.08
   4  -1  -6 3968.36 1649.36
  -4   1   6 3716.93 1587.19
   4  -1  -5 9364.24 2076.47
  -4   1   5 8775.79 1881.97
  -4   1   5 9047.09 1973.62
  -4   1   510011.30 2152.61
   4  -1  -5 8919.86 2144.49
   4  -1  -512928.64 2433.54
  -4   1   4 123882.   3335.
  -4   1   4 125093.   3433.
  -4   1   4 138038.   3679.
   4  -1  -4 125683.   4045.
   4  -1  -4 114701.   3538.
   4  -1  -4 111135.   3416.
  -4   0   8 1265.62 1467.14
   4   0  -8  271.07  880.81
   4   0  -7 5266.48 2152.26
  -4   0   7 3205.87 1472.33
   4   0  -7 3668.16 1802.09
   4   0  -6 5756.13 1765.51
  -4   0   6 8126.71 1632.19
  -4   0   6 6742.18 2096.25
   4   0  -6 6581.86 2194.60
  -4   0   610779.01 2296.63
   4   0  -610896.08 2414.33
  -4   0   5  852.18 1144.72
  -4   0   5 1062.41  993.35
   4   0  -5 1374.58 1187.51
   4   0  -5  650.12  885.63
   4   0  -5  617.74 1036.70
  -4  -1   8  593.88 1065.61
   4   1  -8 1442.46 1644.84
   4   1  -8 1978.61 1442.45
  -4  -1   8 1076.44 1293.91
   4   1  -711895.79 2929.16
  -4  -1   714120.36 2713.89
  -4  -1   717205.65 2869.92
   4   1  -7 6221.21 1654.25
  -4  -1   712207.54 2531.95
   5  -5  -3  676.17 1110.59
  -5   5   3 1202.71 1355.78
  -5   5   2 4223.54 2165.15
  -5   5   1 2230.57 1373.94
   5  -4  -4 5422.74 2248.59
  -5   4   4 4689.03 1839.31
  -5   4   4 1906.09 1383.27
   5  -4  -4  919.99 1275.07
   5  -4  -3 5107.48 1724.33
  -5   4   3 3761.23 1799.40
  -5   4   2  883.48 1001.23
   5  -4  -2 1236.82 1467.17
   5  -3  -5 1138.93 1207.12
  -5   3   5 1713.16 1444.32
  -5   3   4 1003.77 1140.28
   5  -3  -4  798.97 1196.14
   5  -3  -4 1405.02 1559.25
   5  -3  -3  503.28  915.47
  -5   2   733309.15 3678.13
   5  -2  -726833.63 3279.62
  -5   2   6 6006.50 2295.51
  -5   2   6 5949.60 1820.62
  -5   2   6 5939.76 2186.58
  -5   2   515534.48 2335.97
   5  -2  -527002.24 2855.46
  -5   2   521716.01 2546.85
   5  -2  -510683.44 2087.83
   5  -1  -7  861.82 1441.19
  -5   1   7 3503.88 1881.39
  -5   1   7 2213.59 1595.77
   5  -1  -7 1818.85 1448.61
  -5   1   611327.24 2564.98
  -5   1   6 9185.64 2041.87
   5  -1  -6 9525.44 2108.54
;
_shelx_hkl_checksum              73071
_olex2_submission_special_instructions 'No special instructions were received'
loop_
_space_group_symop_operation_xyz
'x, y, z'
'-x, -y, -z'
loop_
_atom_site_label
_atom_site_type_symbol
_atom_site_fract_x
_atom_site_fract_y
_atom_site_fract_z
_atom_site_U_iso_or_equiv
_atom_site_adp_type
_atom_site_occupancy
_atom_site_site_symmetry_order
_atom_site_calc_flag
_atom_site_refinement_flags_posn
_atom_site_refinement_flags_adp
_atom_site_refinement_flags_occupancy
_atom_site_disorder_assembly
_atom_site_disorder_group
O1 O 0.4987(12) 0.2042(9) 0.3204(7) 0.0254(10) Uiso 1 1 d . . . . .
C1 C 0.545(2) 0.4379(17) 0.2630(13) 0.0256(12) Uiso 1 1 d . . . . .
H11 H 0.623129 0.424073 0.149948 0.031 Uiso 1 1 calc R U . . .
H12 H 0.677056 0.550931 0.367720 0.031 Uiso 1 1 calc R U . . .
C2 C 0.281(2) 0.5333(18) 0.2156(13) 0.0302(13) Uiso 1 1 d . . . . .
H21 H 0.155921 0.426996 0.105977 0.045 Uiso 1 1 calc R U . . .
H23 H 0.316270 0.695125 0.184223 0.045 Uiso 1 1 calc R U . . .
H22 H 0.200598 0.539633 0.325745 0.045 Uiso 1 1 calc R U . . .
C3 C 0.747(2) 0.1009(15) 0.3620(11) 0.0254(12) Uiso 1 1 d . . . . .
H31 H 0.723207 -0.026309 0.440691 0.030 Uiso 1 1 calc R U . . .
H32 H 0.898771 0.227237 0.436653 0.030 Uiso 1 1 calc R U . . .
C4 C 0.818(2) -0.0086(16) 0.1748(13) 0.0320(12) Uiso 1 1 d . . . . .
H41 H 0.686668 -0.153869 0.113600 0.048 Uiso 1 1 calc R U . . .
H43 H 1.001199 -0.049546 0.205957 0.048 Uiso 1 1 calc R U . . .
H42 H 0.812374 0.109210 0.087502 0.048 Uiso 1 1 calc R U . . .
loop_
_atom_type_symbol
_atom_type_description
_atom_type_scat_dispersion_real
_atom_type_scat_dispersion_imag
_atom_type_scat_source
C C 0.0033 0.0016 'International Tables Vol C Tables 4.2.6.8 and 6.1.1.4'
H H 0.0000 0.0000 'International Tables Vol C Tables 4.2.6.8 and 6.1.1.4'
O O 0.0106 0.0060 'International Tables Vol C Tables 4.2.6.8 and 6.1.1.4'
loop_
_geom_angle_atom_site_label_1
_geom_angle_atom_site_label_2
_geom_angle_atom_site_label_3
_geom_angle
_geom_angle_site_symmetry_1
_geom_angle_site_symmetry_3
_geom_angle_publ_flag
C1 O1 C3 112.1(5) . . ?
O1 C1 H11 109.7 . . ?
O1 C1 H12 109.7 . . ?
O1 C1 C2 110.0(7) . . ?
H11 C1 H12 108.2 . . ?
C2 C1 H11 109.7 . . ?
C2 C1 H12 109.7 . . ?
C1 C2 H21 109.5 . . ?
C1 C2 H23 109.5 . . ?
C1 C2 H22 109.5 . . ?
H21 C2 H23 109.5 . . ?
H21 C2 H22 109.5 . . ?
H23 C2 H22 109.5 . . ?
O1 C3 H31 109.3 . . ?
O1 C3 H32 109.3 . . ?
O1 C3 C4 111.5(7) . . ?
H31 C3 H32 108.0 . . ?
C4 C3 H31 109.3 . . ?
C4 C3 H32 109.3 . . ?
C3 C4 H41 109.5 . . ?
C3 C4 H43 109.5 . . ?
C3 C4 H42 109.5 . . ?
H41 C4 H43 109.5 . . ?
H41 C4 H42 109.5 . . ?
H43 C4 H42 109.5 . . ?
loop_
_geom_bond_atom_site_label_1
_geom_bond_atom_site_label_2
_geom_bond_distance
_geom_bond_site_symmetry_2
_geom_bond_publ_flag
O1 C1 1.421(8) . ?
O1 C3 1.429(6) . ?
C1 H11 0.9700 . ?
C1 H12 0.9700 . ?
C1 C2 1.479(8) . ?
C2 H21 0.9600 . ?
C2 H23 0.9600 . ?
C2 H22 0.9600 . ?
C3 H31 0.9700 . ?
C3 H32 0.9700 . ?
C3 C4 1.533(8) . ?
C4 H41 0.9600 . ?
C4 H43 0.9600 . ?
C4 H42 0.9600 . ?
loop_
_geom_torsion_atom_site_label_1
_geom_torsion_atom_site_label_2
_geom_torsion_atom_site_label_3
_geom_torsion_atom_site_label_4
_geom_torsion
_geom_torsion_site_symmetry_1
_geom_torsion_site_symmetry_2
_geom_torsion_site_symmetry_3
_geom_torsion_site_symmetry_4
_geom_torsion_publ_flag
C1 O1 C3 C4 -78.2(7) . . . . ?
C3 O1 C1 C2 178.2(7) . . . . ?
