#------------------------------------------------------------------------------
#$Date: 2024-02-05 14:09:55 +0200 (Mon, 05 Feb 2024) $
#$Revision: 289697 $
#$URL: file:///home/coder/svn-repositories/cod/cif/1/57/04/1570452.cif $
#------------------------------------------------------------------------------
#
# This file is available in the Crystallography Open Database (COD),
# http://www.crystallography.net/
#
# All data on this site have been placed in the public domain by the
# contributors.
#
data_1570452
loop_
_publ_author_name
'Sacharczuk, Natalia'
'Olejniczak, Anna'
'Bujak, Maciej'
'Dziubek, Kamil Filip'
'Katrusiak, Andrzej'
'Podsiad&#x142;o, Marcin'
_publ_section_title
;
 Conformation-aggregation interplay in the simplest aliphatic ethers
 probed under high pressure.
;
_journal_issue                   'Pt 1'
_journal_name_full               IUCrJ
_journal_page_first              57
_journal_page_last               61
_journal_paper_doi               10.1107/S2052252523009995
_journal_volume                  11
_journal_year                    2024
_chemical_formula_moiety         'C6 H14 O'
_chemical_formula_sum            'C6 H14 O'
_chemical_formula_weight         102.17
_chemical_name_systematic        'dipropyl ether'
_space_group_crystal_system      monoclinic
_space_group_IT_number           14
_space_group_name_Hall           '-P 2ybc'
_space_group_name_H-M_alt        'P 1 21/c 1'
_atom_sites_solution_hydrogens   geom
_atom_sites_solution_primary     dual
_audit_creation_method
;
Olex2 1.5
(compiled 2022.04.07 svn.rca3783a0 for OlexSys, GUI svn.r6498)
;
_cell_angle_alpha                90
_cell_angle_beta                 98.32(10)
_cell_angle_gamma                90
_cell_formula_units_Z            4
_cell_length_a                   9.099(12)
_cell_length_b                   3.9465(3)
_cell_length_c                   14.649(8)
_cell_measurement_reflns_used    1024
_cell_measurement_temperature    295(2)
_cell_measurement_theta_max      26.1230
_cell_measurement_theta_min      5.3170
_cell_volume                     520.5(8)
_computing_cell_refinement       'CrysAlisPro 1.171.42.49 (Rigaku OD, 2022)'
_computing_data_collection       'CrysAlisPro 1.171.42.49 (Rigaku OD, 2022)'
_computing_data_reduction        'CrysAlisPro 1.171.42.49 (Rigaku OD, 2022)'
_computing_molecular_graphics    'Olex2 1.5 (Dolomanov et al., 2009)'
_computing_publication_material  'Olex2 1.5 (Dolomanov et al., 2009)'
_computing_structure_refinement  'SHELXL 2018/3 (Sheldrick, 2015)'
_computing_structure_solution    'SHELXT 2018/2 (Sheldrick, 2018)'
_diffrn_ambient_environment      'diamond-anvil cell'
_diffrn_ambient_pressure         5300000
_diffrn_ambient_temperature      295(2)
_diffrn_measured_fraction_theta_full 0.317
_diffrn_measured_fraction_theta_max 0.296
_diffrn_measurement_device_type  'KUMA KM4-CCD, Eos'
_diffrn_measurement_method       '\f- and \w-scans'
_diffrn_radiation_type           MoK\a
_diffrn_radiation_wavelength     0.71073
_diffrn_reflns_av_R_equivalents  0.0350
_diffrn_reflns_av_unetI/netI     0.0191
_diffrn_reflns_Laue_measured_fraction_full 0.317
_diffrn_reflns_Laue_measured_fraction_max 0.296
_diffrn_reflns_limit_h_max       7
_diffrn_reflns_limit_h_min       -7
_diffrn_reflns_limit_k_max       4
_diffrn_reflns_limit_k_min       -4
_diffrn_reflns_limit_l_max       16
_diffrn_reflns_limit_l_min       -16
_diffrn_reflns_number            2594
_diffrn_reflns_point_group_measured_fraction_full 0.317
_diffrn_reflns_point_group_measured_fraction_max 0.296
_diffrn_reflns_theta_full        25.242
_diffrn_reflns_theta_max         26.273
_diffrn_reflns_theta_min         5.355
_exptl_absorpt_coefficient_mu    0.085
_exptl_absorpt_correction_T_max  1.00000
_exptl_absorpt_correction_T_min  0.72522
_exptl_absorpt_correction_type   multi-scan
_exptl_absorpt_process_details
;
CrysAlisPro 1.171.42.49 (Rigaku Oxford Diffraction, 2022)
Empirical absorption correction using spherical harmonics,
implemented in SCALE3 ABSPACK scaling algorithm.
;
_exptl_crystal_colour            colourless
_exptl_crystal_density_diffrn    1.304
_exptl_crystal_description       disc
_exptl_crystal_F_000             232
_exptl_crystal_size_max          0.44
_exptl_crystal_size_mid          0.40
_exptl_crystal_size_min          0.21
_refine_diff_density_max         0.096
_refine_diff_density_min         -0.077
_refine_diff_density_rms         0.022
_refine_ls_extinction_method     none
_refine_ls_goodness_of_fit_ref   1.060
_refine_ls_hydrogen_treatment    constr
_refine_ls_matrix_type           full
_refine_ls_number_parameters     66
_refine_ls_number_reflns         310
_refine_ls_number_restraints     6
_refine_ls_restrained_S_all      1.047
_refine_ls_R_factor_all          0.0666
_refine_ls_R_factor_gt           0.0469
_refine_ls_shift/su_max          0.000
_refine_ls_shift/su_mean         0.000
_refine_ls_structure_factor_coef Fsqd
_refine_ls_weighting_details
'w=1/[\s^2^(Fo^2^)+(0.0445P)^2^+0.3422P] where P=(Fo^2^+2Fc^2^)/3'
_refine_ls_weighting_scheme      calc
_refine_ls_wR_factor_gt          0.1081
_refine_ls_wR_factor_ref         0.1229
_reflns_Friedel_coverage         0.000
_reflns_number_gt                232
_reflns_number_total             310
_reflns_threshold_expression     'I > 2\s(I)'
_cod_data_source_file            lq5055.cif
_cod_data_source_block           dipropyl_ether_phase_alpha_5_30GPa
_cod_depositor_comments
'Adding full bibliography for 1570433--1570452.cif.'
_cod_original_cell_volume        520.5(7)
_cod_database_code               1570452
_shelx_shelxl_version_number     2018/3
_shelx_space_group_comment
;
The symmetry employed for this shelxl refinement is uniquely defined
by the following loop, which should always be used as a source of
symmetry information in preference to the above space-group names.
They are only intended as comments.
;
_exptl_absorpt_special_details
;
Data were collected at room temperature (295(2) K) and pressure of 5.50(2) GPa
(5300000 kPa).
;
_olex2_refinement_description
;
1. Fixed Uiso
 At 1.2 times of:
  All C(H,H) groups
 At 1.5 times of:
  All C(H,H,H) groups
2. Uiso/Uaniso restraints and constraints
Uanis(C1) \\sim Ueq: with sigma of 0.05 and sigma for terminal atoms of 0.02
3.a Secondary CH2 refined with riding coordinates:
 C1(H12,H11), C2(H22,H21), C4(H41,H42), C5(H51,H52)
3.b Idealised Me refined as rotating group:
 C3(H33,H31,H32), C6(H63,H61,H62)
;
_shelx_res_file
;
TITL 6edp_a.res in P2(1)/c
    6edp.res
    created by SHELXL-2018/3 at 14:54:02 on 21-Dec-2022
REM Old TITL 6edp in P2(1)/c
REM SHELXT solution in P2(1)/c: R1 0.245, Rweak 0.302, Alpha 0.098
REM <I/s> 0.467 for 30 systematic absences, Orientation as input
REM Formula found by SHELXT: C4 O4
CELL 0.71073 9.099 3.9465 14.6489 90 98.322 90
ZERR 4 0.0118 0.0003 0.0083 0 0.096 0
LATT 1
SYMM -X,0.5+Y,0.5-Z
SFAC C H O
UNIT 24 56 4
ISOR 0.05 0.02 C1

L.S. 50
PLAN  10
TEMP 25
CONF
BOND
list 4
MORE -1
BOND $H
fmap 2 53
acta
REM <olex2.extras>
REM <HklSrc "%.\\6edp.hkl">
REM </olex2.extras>

WGHT    0.044500    0.342200
FVAR       1.29059
O1    3    0.462663    0.864971    0.132532    11.00000    0.07252    0.02698 =
         0.05641   -0.00210    0.03389    0.00552
C1    1    0.370612    0.716601    0.053068    11.00000    0.00865    0.02396 =
         0.03669   -0.00007    0.00072    0.00127
AFIX  23
H12   2    0.409912    0.780801   -0.002578    11.00000   -1.20000
H11   2    0.375152    0.471618    0.058045    11.00000   -1.20000
AFIX   0
C2    1    0.216591    0.824403    0.045446    11.00000    0.07229    0.02602 =
         0.05866    0.00139    0.04237    0.00540
AFIX  23
H22   2    0.213116    1.069016    0.051235    11.00000   -1.20000
H21   2    0.172236    0.726698    0.095760    11.00000   -1.20000
AFIX   0
C3    1    0.126575    0.719568   -0.045524    11.00000    0.07214    0.03015 =
         0.03927   -0.00189    0.02095   -0.00392
AFIX 137
H33   2    0.029615    0.820062   -0.050986    11.00000   -1.50000
H31   2    0.117300    0.477280   -0.047607    11.00000   -1.50000
H32   2    0.175853    0.795027   -0.095538    11.00000   -1.50000
AFIX   0
C4    1    0.605459    0.727048    0.148190    11.00000    0.02336    0.02534 =
         0.05547    0.00617    0.02060    0.00744
AFIX  23
H41   2    0.658536    0.789594    0.097857    11.00000   -1.20000
H42   2    0.598453    0.481867    0.149304    11.00000   -1.20000
AFIX   0
C5    1    0.692908    0.850704    0.239545    11.00000    0.08084    0.02446 =
         0.02786    0.00385    0.01468    0.00560
AFIX  23
H51   2    0.691123    1.096390    0.240938    11.00000   -1.20000
H52   2    0.644999    0.768628    0.290271    11.00000   -1.20000
AFIX   0
C6    1    0.845856    0.736010    0.252104    11.00000    0.11644    0.03010 =
         0.06426    0.00547    0.05281    0.00839
AFIX 137
H63   2    0.896718    0.821768    0.309438    11.00000   -1.50000
H61   2    0.893893    0.817475    0.202188    11.00000   -1.50000
H62   2    0.848248    0.492831    0.253003    11.00000   -1.50000
AFIX   0
HKLF 4




REM  6edp_a.res in P2(1)/c
REM wR2 = 0.1229, GooF = S = 1.060, Restrained GooF = 1.047 for all data
REM R1 = 0.0469 for 232 Fo > 4sig(Fo) and 0.0666 for all 310 data
REM 66 parameters refined using 6 restraints

END

WGHT      0.0445      0.3422

REM Highest difference peak  0.096,  deepest hole -0.077,  1-sigma level  0.022
Q1    1   0.9571  0.7972  0.2188  11.00000  0.05    0.09
Q2    1   0.3168  0.7542  0.1589  11.00000  0.05    0.08
Q3    1   0.2748  0.7625  0.1432  11.00000  0.05    0.08
Q4    1   0.1928  0.6965 -0.0977  11.00000  0.05    0.07
Q5    1   0.2367  0.6896 -0.0798  11.00000  0.05    0.06
Q6    1   0.6075  0.7538  0.3187  11.00000  0.05    0.06
Q7    1   0.4907  0.8728  0.0214  11.00000  0.05    0.06
Q8    1   0.6445  0.7409  0.3375  11.00000  0.05    0.06
Q9    1   0.5387  0.8813  0.0370  11.00000  0.05    0.06
Q10   1   0.4401  0.6275 -0.0216  11.00000  0.05    0.06
;
_shelx_res_checksum              24215
_shelx_hkl_file
;
   0  -1   0    2.59    0.97
   0   1   0    3.51    1.26
   0  -1  -1  155.72    6.38
   0   1  -1  140.98    5.87
   0   1  -1  140.49    5.57
   0  -1  -1  143.43    6.01
   0   1   1  153.51    6.22
   0   1   1  146.03    6.05
   0  -1  -1  142.49    6.02
   0  -1   1  147.85    6.22
   0   1   1  158.41    6.35
   0   1   2 3026.58   27.70
   0  -1   2 3032.08   28.56
   0   1   2 3072.43   28.24
   0  -1  -2 3036.42   29.81
   0   1   2 3045.99   29.41
   0  -1  -2 3034.23   27.88
   0  -1  -2 2940.10   30.44
   0   1  -2 3055.65   27.94
   0   1  -2 3021.01   27.63
   0   1   2 3040.30   29.19
   0  -1  -2 3061.91   29.43
   0   1   3  134.96    6.80
   0  -1  -3  139.79    6.68
   0   1  -3  151.96    6.43
   0   1  -3  142.41    6.74
   0   1   3  142.74    6.88
   0  -1  -3  143.97    6.74
   0   1  -3  148.69    6.54
   0   1   3  135.05    6.82
   0  -1   3  153.81    6.69
   0   1  -3  149.57    6.62
   0   1  -4    0.88    0.99
   0   1  -4   -0.61    0.97
   0   1  -4    0.33    0.59
   0   1  -4   -0.29    1.09
   0  -1   4    0.17    0.98
   0   1  -5   12.75    2.48
   0   1  -5   14.90    2.46
   0  -2   0 4948.35   50.51
   0  -2   0 4843.26   47.09
   0   2   0 4810.52   43.59
   0   2   0 4740.59   47.07
   0  -2   0 4826.66   36.21
   0  -2   0 4765.29   44.43
   0   2   0 4748.45   37.87
   0   2   0 4769.25   46.72
   0  -2   0 4891.69   46.53
   0   2   0 4822.41   48.83
   0   2  -1  638.93   16.71
   0   2  -1  702.45   12.99
   0   2  -1  681.92   12.88
   0   2  -1  686.38   13.30
   0  -2   1  653.12   16.66
   0  -2  -1  652.40   18.04
   0  -2   1  653.78   12.20
   0   2   1  672.90   16.01
   0   2   1  657.74   18.24
   0  -2   1  620.26   12.88
   0  -2   1  659.74   17.27
   0  -2  -1  664.25   17.95
   0  -2  -1  658.80   16.34
   0   2   1  655.18   18.08
   0   2  -1  669.13   18.12
   0   2   1  648.85   17.93
   0  -2  -1  660.30   15.11
   0   2   1  660.95   15.49
   0   2  -1  699.05   17.26
   0  -2   1  650.20   18.36
   0  -2   1  669.19   17.11
   0  -2   1  644.89   12.65
   0  -2  -1  666.64   18.69
   0   2  -1  671.66   16.90
   0   2   2   40.28    4.81
   0   2  -2   35.12    3.83
   0  -2  -2   36.54    4.79
   0   2   2   37.19    4.13
   0   2  -2   35.21    4.33
   0   2  -2   32.71    4.08
   0  -2   2   38.08    4.16
   0   2   2   38.73    4.93
   0   2   2   33.36    4.53
   0  -2   2   29.87    3.60
   0  -2  -2   33.55    4.38
   0  -2  -2   41.87    5.14
   0   2  -2   38.87    3.57
   0  -2  -2   30.39    3.59
   0  -2   2   40.20    3.71
   0   2  -2   38.37    3.38
   0  -2  -2   33.02    4.03
   0   2   2   36.01    3.86
   0   2  -2   38.27    4.02
   0  -2   2   33.14    4.46
   0  -2   3   24.75    3.97
   0   2  -3   25.67    3.75
   0  -2  -3   21.80    3.03
   0   2  -3   23.58    3.10
   0   2   3   26.42    3.84
   0   2   3   27.74    3.80
   0   2  -3   26.07    3.50
   0   2  -3   24.37    3.06
   0   2   3   23.41    3.73
   0  -2   3   26.03    3.54
   0  -2   3   24.19    3.17
   0  -2   3   26.17    3.31
   0   2  -3   20.91    3.36
   0   2   3   22.36    2.86
   0   2   3   26.28    4.34
   0  -2  -3   22.94    3.80
   0  -2  -3   24.99    3.96
   0  -2  -3   26.06    4.43
   0   2  -3   23.65    2.92
   0   2   4  111.01    7.67
   0  -2  -4   98.52    5.51
   0   2  -4   97.26    6.50
   0  -2   4  109.43    6.56
   0   2  -4  103.06    6.66
   0  -2  -4  101.66    7.84
   0   2  -4  104.07    6.69
   0  -2  -4  112.21    7.52
   0   2  -4  112.22    6.66
   0   2   4   90.07    5.51
   0  -2   4  112.51    8.20
   0   2   4  112.73    8.20
   0  -2   4  110.53    7.28
   0   2  -4  107.98    7.70
   0   2   4  116.99    8.54
   0  -2  -4   99.41    7.75
   0   2  -4  112.30    7.88
   0  -2  -5    5.11    2.36
   0   2   5    6.01    2.83
   0  -2   5    7.46    2.24
   0   2  -5    6.68    3.01
   0   2  -5    8.32    2.68
   0  -2  -5    4.33    2.59
   0  -2   5    7.39    2.55
   0   2  -5    8.46    3.03
   0   2  -5   11.31    3.04
   0   2  -6   67.74    6.62
   0   2  -6   71.40    6.49
   0   2  -6   65.71    6.02
   0  -2   6   72.57    6.94
   0   2  -7   27.51    4.30
   0   2  -7   25.05    4.35
   0  -2   7   28.23    4.79
   0  -3   0   -2.82    2.48
   0  -3   0    0.27    2.12
   0  -3   0    1.18    2.20
   0   3   0    0.04    2.08
   0   3   0   -3.11    2.81
   0  -3   0   -3.01    2.71
   0   3   0   -1.61    2.69
   0   3   0   -1.18    2.33
   0  -3  -1   44.90    6.32
   0  -3  -1   39.12    5.62
   0   3   1   49.37    6.16
   0   3   1   50.21    6.64
   0   3  -1   49.97    5.80
   0  -3   1   49.21    6.41
   0  -3  -1   39.86    5.82
   0  -3  -1   45.09    5.83
   0  -3   1   39.42    5.35
   0   3   1   51.42    6.30
   0  -3   1   47.58    6.64
   0   3  -1   44.78    6.14
   0   3  -1   51.26    6.39
   0   3  -1   51.53    6.57
   0  -3   1   46.02    6.12
   0   3   1   44.83    5.46
   0   3  -2    4.79    2.25
   0   3   2    9.08    3.09
   0   3  -2    7.05    3.18
   0   3   2    3.76    2.35
   0  -3   2    6.44    2.40
   0   3  -2    5.84    3.11
   0  -3   2    4.14    2.51
   0  -3  -2    4.19    2.53
   0  -3  -2    4.05    2.72
   0  -3   2    7.53    2.51
   0   3   2    0.92    2.74
   0   3  -2    1.92    2.44
   0  -3   2    7.88    3.37
   0  -3  -2    7.03    2.94
   0   3  -3   36.02    5.90
   0  -3  -3   28.59    5.80
   0   3   3   31.59    5.46
   0   3  -3   24.47    4.46
   0   3   3   32.16    5.62
   0   3   3   40.59    6.92
   0   3  -3   34.82    5.67
   0  -3   3   26.36    5.14
   0  -3  -3   34.39    6.40
   0  -3   3   25.09    4.88
   0  -3   3   29.89    5.28
   0   3  -3   33.57    5.85
   0  -3  -3   35.93    6.43
   0  -3   3   33.55    5.17
   0   3  -4   -1.34    2.84
   0  -3  -4   -2.16    2.79
   0   3   4   -5.11    4.12
   0  -3  -4    0.33    2.23
   0   3   4   -6.48    3.64
   0  -3   4    0.43    2.61
   0  -3   4   -3.51    3.30
   0   3  -4   -3.59    2.99
   0  -3  -4   -1.15    2.26
   0   3   4    1.70    2.62
   0  -3  -4   -0.03    2.36
   0   3  -5    2.72    2.33
   0  -3  -5    3.38    2.71
   0   3  -5   -1.38    2.71
   0   3   5    2.42    2.55
   0  -3   5    3.61    2.80
   0  -3  -5    0.78    2.55
   0   3   5    1.39    2.05
   0  -3  -5   -0.43    1.99
   0  -3   6    4.98    3.24
   0   3  -6   -0.86    3.21
   0   3  -6    7.43    3.71
   0   3  -7   10.98    4.12
   0  -3   7   -0.22    3.53
   0   3  -7    5.33    2.72
   0   4   0   20.35    5.66
   0  -4   0   15.97    5.48
   0  -4   0   19.61    4.99
   0  -4   0   19.23    5.11
   0   4   0   22.60    5.53
   0   4   0   26.97    6.17
   0   4   1   -0.20    2.63
   0  -4   1    8.49    4.58
   0   4   1    0.52    3.21
   0  -4  -1   -0.61    4.41
   0  -4  -1    5.65    4.14
   0   4   1    8.85    5.30
   0   4  -1    4.80    4.80
   0  -4  -1    0.31    3.06
   0   4  -1    8.67    4.31
   0  -4   1    2.10    3.17
   0  -4   1    6.38    3.09
   0  -4  -2   12.30    5.25
   0   4   2   18.62    5.55
   0   4   2   19.50    5.38
   0   4   2   14.29    5.48
   0  -4  -2    8.82    4.64
   0  -4  -2   10.64    4.49
   0  -4  -3    5.48    4.55
   0  -4   3   -1.04    3.12
   0   4   3    2.90    3.17
   0   4   3    1.53    2.72
   0  -4   3    0.46    2.90
   0   4  -3   -1.37    3.93
   0  -4  -3   -1.72    4.45
   0   4  -3   -3.34    3.18
   0  -4  -3    1.00    3.74
   0   4  -4   13.88    4.79
   0  -4   4   15.27    5.06
   0   4   4    8.73    3.85
   0   4  -4   14.15    5.26
   0  -4   4   21.79    5.89
   0  -4  -4    9.29    4.86
   0   4   4   18.42    5.76
   0  -4   5   26.96    5.92
   0  -4   5   27.13    6.95
   0   4  -5   38.31    6.99
   0   4  -5   34.81    7.28
   0  -4   6    2.28    3.73
   0   4  -6    4.63    4.15
   0   4  -6   -6.41    4.76
   0  -4   6   -1.19    3.60
   0   4  -7    4.81    3.80
   0  -4   7    3.39    3.55
   0   4  -7    5.22    4.81
   0  -4   7    7.50    4.42
  -1   0   8  218.81   10.65
   1   0  -8  203.83    9.86
   1   0  -8  206.04   10.82
   1   0  -8  199.38    9.98
   1   0  -7   -1.94    1.69
   1   0  -7   -5.11    2.61
   1   0  -7   -2.49    1.89
  -1   0   7   -0.16    1.41
   1   0  -7   -2.13    2.06
  -1   0   7   -1.97    1.74
   1   0  -6   44.29    4.39
   1   0  -6   54.76    5.42
   1   0  -6   49.93    4.54
  -1   0   6   45.96    4.60
  -1   0   6   51.16    4.53
   1   0  -6   41.07    4.31
  -1   0   5   -0.06    0.72
   1   0  -5   -0.44    0.91
   1   0  -5    1.36    1.00
  -1   0   5   -1.36    0.96
   1   0  -5   -0.94    0.93
  -1   0   5    0.50    1.02
   1   0  -5    0.69    1.07
  -1   0   4 7216.79   45.02
   1   0  -4 7183.48   43.29
   1   0  -4 7142.80   42.17
   1   0  -4 7170.03   42.31
   1   1  -9   14.39    3.03
   1   1  -9   12.17    3.02
   1  -1  -8  105.32    8.12
   1  -1  -8  101.82    7.86
  -1  -1   7    0.56    1.64
  -1   1   7    1.04    1.65
   1   1  -7   -0.06    1.60
   1  -1  -7    0.17    1.60
   1   1  -7    2.11    1.87
  -1  -1   7   -0.17    1.44
   1   1  -7   -2.15    2.21
   1  -1  -7    1.36    1.43
   1   1  -7    0.39    1.76
  -1   1   7    2.14    1.78
  -1  -1   7    1.67    0.99
   1  -1  -7   -0.51    1.52
  -1   1   7    1.46    1.58
   1  -1  -7   -0.63    1.46
  -1   1   6    1.45    1.95
   1  -1  -6    5.23    2.35
  -1   1   6    6.70    3.00
   1   1  -6   -0.74    2.03
   1  -1  -6    0.51    1.65
   1   1  -6    4.34    2.16
  -1   1   6   10.25    3.34
   1  -1  -6    0.12    1.75
  -1  -1   6   12.71    2.94
  -1  -1   6   16.50    4.43
  -1  -1   6   14.99    3.60
   1   1  -6    2.64    2.33
  -1   1   6    4.52    1.82
   1  -1  -6    7.04    2.64
   1   1  -6    2.03    2.08
   1  -1  -6    0.28    1.35
  -1   1   5    0.76    1.09
   1  -1  -5    0.90    1.34
   1   1  -5    3.23    1.78
  -1   1   5   -0.73    1.43
  -1   1   5    1.66    1.18
   1   1  -5   -0.27    0.72
   1  -1  -5    1.18    0.97
  -1   1   5    0.80    0.86
   1   1  -5    0.87    1.10
   1   1  -5    0.79    0.84
   1  -1  -5    1.69    1.06
  -1  -1   5    0.75    1.04
   1  -1  -5   -0.41    1.23
  -1  -1   5    0.26    0.97
  -1   1   5    1.06    1.06
  -1  -1   5    1.31    1.48
   1   1  -5    0.99    1.19
   1   1  -4    1.05    0.73
   1   1  -4    1.15    0.90
   1   1  -4    0.75    0.90
  -1   1   4   -0.15    0.95
   1  -1  -4    0.16    0.79
   1  -1  -4    0.25    0.79
   1  -1  -4    0.68    0.81
   1   1  -4   -0.05    0.75
  -1  -1   4    0.91    0.76
  -1   1   4    0.82    0.99
  -1   1   4    0.37    0.64
   1  -1  -4    1.71    1.19
  -1   1   4    1.50    1.08
   1   1  -4    1.70    0.79
  -1   1   4   -0.48    1.08
   1  -1  -4    0.50    0.86
  -1  -1   4    0.60    0.92
   1   1  -3 1062.79   18.11
   1   1  -3 1083.71   16.82
   1   1  -3 1112.05   17.47
  -1   1   3 1069.74   15.88
   1  -1  -3 1124.69   16.56
   1  -1  -3 1085.55   18.40
  -1   1   3 1043.66   18.61
   1   1  -3 1096.79   17.43
  -1   1   3 1099.46   18.84
  -1  -1   3 1037.81   16.86
   1  -1  -3 1097.58   18.68
   1  -1  -3 1099.00   15.73
  -1   1   3 1090.78   16.11
   1  -1  -3 1052.13   18.11
  -1   1   3 1104.49   18.83
   1  -1  -1  116.67    5.62
   1   1  -1  125.86    5.77
   1  -1  -1  116.61    5.73
   1   1  -1  118.15    5.70
   1  -1  -1  121.58    5.66
   1  -1  -1  120.81    5.23
  -1   1   1  114.17    5.04
  -1   1   1  116.65    5.56
  -1  -1   1  120.83    5.95
  -1   1   1  118.07    5.57
  -1   1   1  116.75    5.21
  -1  -1   1  124.15    5.78
   1  -1   0   61.36    4.03
   1   1   0   65.98    4.31
  -1  -1   0   72.53    4.86
   1  -1   0   57.33    3.78
  -1   1   0   63.63    4.03
  -1   1   0   62.02    4.02
  -1  -1   0   47.49    3.58
  -1   1   0   56.77    3.81
   1  -1   1   20.41    2.27
  -1   1  -1   24.38    2.63
  -1   1  -1   23.97    2.59
   1   2 -10    2.72    2.81
   1   2  -9   32.75    6.17
   1   2  -9   23.78    4.73
   1   2  -9   26.54    5.08
  -1  -2   9   17.68    5.09
  -1  -2   8    2.36    2.21
   1   2  -8    0.01    2.07
   1   2  -8    4.67    2.50
   1   2  -8    6.68    3.31
   1  -2  -8    1.87    2.12
  -1  -2   8    6.13    3.40
   1  -2  -8   -1.66    2.65
  -1   2   8   -1.11    2.06
   1  -2  -8    1.40    2.12
   1  -2  -7   40.84    5.51
   1   2  -7   49.98    6.03
  -1  -2   7   51.97    6.05
  -1   2   7   54.32    6.42
   1  -2  -7   45.31    5.89
   1   2  -7   53.31    6.22
   1  -2  -7   41.69    5.47
   1   2  -7   53.31    5.94
  -1   2   7   47.78    6.34
   1  -2  -7   47.53    5.13
   1   2  -7   54.83    6.45
  -1  -2   7   54.58    6.49
  -1  -2   6    7.03    2.97
   1   2  -6    4.85    2.20
  -1  -2   6    6.62    2.85
  -1   2   6    4.71    2.15
   1  -2  -6    2.67    2.14
   1  -2  -6    3.61    2.30
  -1   2   6    3.80    2.86
  -1   2   6    7.55    3.15
   1   2  -6    5.77    2.98
  -1   2   6    2.19    1.76
   1   2  -6    5.62    2.18
   1  -2  -6    5.67    2.67
   1  -2  -6    0.42    1.93
   1   2  -6    4.78    2.60
   1  -2  -5  248.47    9.85
   1   2  -5  256.61   12.52
   1  -2  -5  275.25   13.26
   1  -2  -5  250.70   12.54
  -1   2   5  264.48   12.37
  -1  -2   5  259.61   12.22
   1   2  -5  269.88   12.19
   1   2  -5  256.48   11.94
   1   2  -5  261.38   11.40
  -1   2   5  259.11   11.24
  -1   2   5  248.83   12.40
   1  -2  -5  248.40   12.04
   1  -2  -5  237.13   12.32
  -1  -2   5  246.32   12.23
  -1   2   5  246.65   12.54
   1   2  -4  408.91   13.81
   1   2  -4  415.50   13.41
   1  -2  -4  396.48   11.21
   1  -2  -4  389.79   15.29
  -1  -2   4  414.27   15.55
  -1   2   4  404.62   13.86
   1  -2  -4  399.20   14.38
  -1   2   4  413.25   15.31
   1  -2  -4  399.26   15.37
   1   2  -4  411.68   11.98
  -1  -2   4  427.21   14.45
  -1  -2   4  415.83   15.24
  -1  -2   4  410.69   12.06
  -1   2   4  393.86   14.13
   1   2  -4  412.29   14.61
   1  -2  -4  403.35   15.24
  -1   2   4  392.01   15.01
   1   2  -4  412.27   15.14
  -1  -2   4  414.55   11.90
  -1   2   3    5.06    2.21
  -1  -2   3    2.29    2.00
  -1  -2   3    0.20    1.82
  -1   2   3    1.97    1.84
   1   2  -3    1.32    1.48
   1   2  -3    2.71    1.95
   1  -2  -3    1.96    1.54
  -1  -2   3    1.81    1.44
   1  -2  -3    1.36    1.56
  -1   2   3    1.02    1.79
  -1  -2   3    1.05    1.26
   1   2  -3    3.61    1.62
  -1  -2   3    0.30    1.39
   1   2  -3   -0.42    1.81
   1   2  -3    1.15    1.30
   1  -2  -3    4.53    2.13
  -1   2   3    5.08    2.78
   1   2  -3   -0.22    1.52
   1  -2  -3    1.93    2.37
   1  -2  -2   11.18    2.81
  -1   2   2   11.88    2.97
   1   2  -2   11.68    2.50
   1  -2  -2   12.39    2.08
  -1  -2   2   10.38    2.23
   1  -2  -2    8.01    2.31
   1   2  -2   10.26    2.49
  -1  -2   2   10.44    2.00
  -1   2   2   10.72    1.88
  -1   2   2    8.22    2.01
  -1   2   2    5.91    1.78
   1   2  -2   11.67    2.20
  -1  -2   2   12.10    2.34
   1   2  -2   10.72    1.90
  -1   2   2   10.40    2.36
   1  -2  -2    9.45    2.19
   1   2  -2   13.32    2.44
   1  -2  -2    7.35    2.12
   1   2  -2    9.86    1.78
  -1  -2   2   10.39    2.64
  -1  -2   2   12.20    2.51
  -1   2   1  420.64   12.33
  -1  -2   1  460.74   14.34
   1   2  -1  433.57   14.00
  -1  -2   1  439.36   15.67
   1   2  -1  478.54   16.10
   1   2  -1  473.53   14.24
   1  -2  -1  443.10   12.66
   1  -2  -1  440.78   15.15
  -1   2   1  441.77   14.92
   1  -2  -1  420.82   14.84
   1   2  -1  443.85   14.84
  -1   2   1  413.84   12.44
  -1  -2   1  440.51   13.77
  -1   2   1  428.41   14.82
   1   2  -1  466.48   12.03
  -1   2   1  420.57   14.32
   1  -2  -1  416.57   12.39
  -1  -2   1  453.01   15.02
   1  -2  -1  422.00   15.11
  -1  -2   0   17.11    3.11
   1   2   0   13.26    2.53
  -1   2   0   10.29    1.64
  -1   2   0    7.64    1.82
   1   2   0   19.13    3.37
  -1  -2   0   16.84    2.44
  -1  -2   0   14.70    3.17
   1  -2   0   16.27    3.37
  -1   2   0    8.83    1.97
   1   2   0   15.70    2.67
   1   2   0   18.28    3.65
  -1   2   0   18.86    2.40
   1   2   0   16.91    2.30
  -1  -2   0   19.29    3.63
  -1   2   0   13.39    2.89
   1  -2   0   17.98    3.24
   1  -2   0   11.99    1.93
   1  -2   0   10.71    1.48
  -1  -2   0   20.11    3.81
  -1   2  -1   61.36    4.32
   1  -2   1   54.87    5.70
   1   2   1   60.44    5.59
  -1   2  -1   53.53    5.61
  -1   2  -1   61.90    3.73
  -1  -2  -1   62.56    6.03
  -1  -2  -1   55.17    4.62
  -1  -2  -1   50.97    5.19
  -1  -2  -1   74.17    7.05
  -1   2  -1   64.69    5.78
  -1   2  -1   55.12    5.35
   1   2   1   63.22    5.98
   1  -2   1   54.63    5.17
   1   2   1   61.17    5.42
  -1   2  -1   57.49    5.35
   1  -2   1   57.68    5.48
  -1  -2  -2    0.64    1.37
  -1   2  -2   -2.05    2.47
   1  -2   2   -2.60    2.35
  -1   2  -2   -1.37    1.89
  -1   2  -2    2.41    1.79
   1   2   2    2.12    1.54
   1  -2   2    0.16    1.89
   1   2   2    3.14    1.49
   1  -2   2    1.57    1.64
  -1   2  -2    0.54    1.61
  -1   2  -2   -4.13    2.51
  -1   2  -3   14.06    3.26
  -1   2  -3   11.33    2.93
  -1   2  -3   10.13    2.75
   1  -2   3    7.07    2.56
  -1   2  -3   14.23    2.69
   1  -2   3   14.23    2.87
  -1   2  -4   19.11    2.82
   1  -2   4   17.58    3.29
  -1   2  -4   14.89    3.09
  -1   2  -4   21.07    3.51
   1  -2   4   16.63    2.63
  -1   2  -4   22.24    3.76
   1   3 -10   15.20    4.24
   1   3 -10   20.40    5.35
   1   3  -9    4.71    3.55
   1   3  -9    2.54    3.16
  -1  -3   8    7.89    4.36
   1   3  -8   24.94    6.30
  -1  -3   8   22.24    5.21
   1   3  -8   15.10    4.67
   1   3  -7   16.72    4.89
  -1  -3   7    9.71    3.96
  -1   3   7   11.75    4.21
   1  -3  -7   12.35    3.84
   1  -3  -7   -0.32    2.57
   1  -3  -7   14.36    4.51
   1   3  -7   15.74    4.92
  -1  -3   7    6.50    3.79
  -1  -3   6   36.43    6.41
  -1   3   6   33.05    5.53
   1  -3  -6   38.23    6.80
   1  -3  -6   33.21    5.69
  -1   3   6   34.80    5.77
   1   3  -6   39.87    6.30
  -1   3   6   45.55    7.29
  -1   3   6   38.60    6.68
  -1  -3   6   20.72    5.84
   1   3  -6   34.41    5.84
   1  -3  -6   24.28    6.22
  -1  -3   5   -0.69    2.73
  -1  -3   5    1.24    2.53
  -1   3   5   -0.52    2.93
  -1   3   5   -0.31    2.92
  -1   3   5   -2.46    2.74
   1   3  -5    0.87    3.17
   1  -3  -5    2.69    3.28
   1  -3  -5   -0.42    2.55
   1  -3  -5    0.39    2.63
  -1   3   5   -2.12    2.69
   1   3  -5   -1.93    2.69
   1  -3  -5   -4.12    3.39
   1   3  -4   97.77    8.79
   1  -3  -4   78.36    8.72
   1  -3  -4  103.43    8.56
  -1   3   4   95.17    9.35
  -1   3   4   99.45    9.34
   1  -3  -4   97.10    9.38
   1  -3  -4  112.14   10.92
   1   3  -4   97.60    9.12
  -1   3   4   91.44    8.07
  -1  -3   4   98.66    9.57
  -1   3   4   90.48    8.45
  -1  -3   4   90.00    9.32
   1   3  -3  339.59   16.61
  -1  -3   3  347.73   17.80
  -1   3   3  336.26   17.00
   1  -3  -3  346.35   17.65
  -1   3   3  356.71   17.15
   1  -3  -3  356.12   17.80
  -1  -3   3  362.82   17.41
  -1   3   3  344.10   16.25
   1  -3  -3  357.34   17.75
   1   3  -3  340.54   16.94
   1  -3  -2  359.81   17.64
  -1   3   2  393.81   17.41
  -1  -3   2  391.97   16.41
  -1   3   2  400.72   17.92
   1  -3  -2  401.21   18.63
   1   3  -2  394.78   17.09
  -1  -3   2  374.01   15.62
   1   3  -2  385.33   17.55
  -1   3   2  419.16   17.94
   1  -3  -2  392.44   18.05
  -1  -3   2  414.36   17.88
   1   3  -2  396.77   16.75
  -1  -3   2  411.67   19.03
   1   3  -2  393.36   16.44
  -1  -3   1   31.66    5.74
  -1  -3   1   38.33    5.67
   1  -3  -1   27.17    4.94
   1   3  -1   35.31    5.83
   1   3  -1   28.39    4.49
   1   3  -1   31.41    5.43
  -1  -3   1   32.31    4.89
  -1  -3   1   25.93    4.67
  -1   3   1   35.39    5.65
   1   3  -1   36.08    5.19
   1  -3  -1   28.40    5.31
  -1   3   1   38.34    5.64
   1  -3  -1   29.03    4.74
  -1   3   1   37.32    5.67
   1  -3   0   -1.56    2.54
  -1  -3   0    0.89    2.23
   1   3   0   -2.28    2.70
  -1   3   0    0.84    2.33
   1   3   0    1.13    1.81
   1  -3   0   -1.18    2.89
  -1   3   0    3.73    2.53
  -1   3   0   -1.60    3.30
   1   3   0   -0.07    3.01
  -1  -3   0    1.49    2.45
  -1   3   0   -1.55    2.13
  -1  -3   0   -0.59    2.56
   1  -3   0    0.08    2.11
   1  -3   0   -0.50    2.05
   1   3   0    1.89    2.71
  -1  -3   0   -0.03    2.09
  -1   3  -1    0.10    2.36
   1  -3   1   -0.33    2.30
   1  -3   1    0.43    2.37
  -1  -3  -1    1.36    2.64
   1  -3   1    2.05    2.59
  -1  -3  -1   -0.85    2.50
  -1   3  -1   -1.37    2.69
   1   3   1   -0.50    2.04
   1  -3   1    1.32    2.45
  -1   3  -1    1.01    2.58
   1   3   1   -5.16    3.16
   1   3   1   -3.41    3.06
  -1   3  -1   -2.16    4.05
  -1  -3  -1   -9.16    4.31
   1   3   2  108.80    8.67
   1  -3   2  121.56    9.44
   1  -3   2  112.50   10.08
  -1   3  -2  121.01    9.92
  -1  -3  -2   99.69    9.21
   1   3   2  109.61    9.63
   1   3   2  110.51    9.35
   1  -3   2  121.45    9.64
  -1   3  -2  126.91   10.50
  -1   3  -2  132.86   10.51
  -1  -3  -2  106.22   10.39
  -1   3  -2  121.10   10.31
   1  -3   3   26.85    5.00
  -1   3  -3   30.30    5.60
   1  -3   3   21.81    4.95
  -1   3  -3   24.03    4.94
   1  -3   3   27.34    5.17
  -1   3  -3   22.93    4.97
  -1   3  -3   34.14    6.01
  -1   3  -4    2.70    2.68
   1  -3   4    1.77    2.71
  -1   3  -4    4.17    3.15
   1  -3   5   24.44    5.94
  -1   3  -5   28.61    5.19
   1   4  -9    2.99    3.63
  -1  -4   9    0.71    4.24
  -1  -4   8    5.27    4.01
   1   4  -8    2.84    3.24
  -1  -4   8    5.52    5.22
   1   4  -8    3.59    5.05
  -1  -4   7    6.44    4.73
  -1  -4   7    6.07    4.37
   1   4  -7    7.57    4.67
   1   4  -7    8.37    4.01
  -1  -4   6    0.13    3.23
  -1  -4   6    5.47    4.87
   1   4  -6    1.08    3.26
  -1   4   6   -1.78    2.90
  -1   4   6   -5.67    4.25
   1   4  -6    3.71    3.63
   1  -4  -6    1.50    3.25
   1  -4  -6    0.78    3.18
  -1  -4   5    4.81    4.76
   1   4  -5    9.44    4.20
  -1  -4   5   15.14    4.74
   1  -4  -5   10.31    8.45
   1  -4  -5   11.54    6.55
  -1   4   5   36.35   11.02
  -1   4   5   12.35    5.86
   1   4  -5    6.86    3.45
  -1   4   5   13.93    5.35
   1  -4  -5   17.20    8.62
  -1  -4   4   -3.20    4.67
  -1   4   4   -1.84    3.28
  -1   4   4   -3.26    4.59
  -1  -4   4   -5.19    4.45
   1   4  -4    0.96    3.41
   1  -4  -4    1.32    3.42
   1   4  -4    0.88    3.61
   1  -4  -4    1.97    3.47
  -1   4   4    0.80    3.20
   1  -4  -4  -11.06    5.19
  -1  -4   3   53.39    8.92
  -1   4   3   54.38    7.85
  -1  -4   3   58.47    8.42
   1   4  -3   60.37    8.99
  -1   4   3   56.79    8.19
   1   4  -3   64.51    8.80
   1  -4  -3   57.88    9.37
  -1   4   3   44.75    7.51
   1  -4  -3   38.85    8.41
   1  -4  -3   68.35   10.44
  -1   4   2   53.89    8.06
  -1  -4   2   73.19   10.43
  -1   4   2   53.33    8.51
   1  -4  -2   35.07    7.91
   1   4  -2   69.11    9.05
  -1   4   2   57.90    8.63
  -1  -4   2   67.89    9.23
   1   4  -2   58.23    8.85
   1  -4  -2   58.64    9.43
   1  -4  -2   57.23    8.77
   1  -4  -1   -7.48    4.07
   1  -4  -1    1.15    3.60
   1  -4  -1   -0.02    3.61
  -1   4   1   -2.37    2.88
   1   4  -1   -1.48    3.52
  -1   4   1   -6.78    5.09
  -1   4   1   -2.07    3.32
  -1  -4   1   -1.45    4.30
  -1   4   0   46.90    7.66
   1   4   0   45.60    7.77
   1  -4   0   38.71    6.87
   1  -4   0   41.06    7.18
  -1  -4   0   36.43    6.69
  -1   4   0   45.28    7.49
  -1   4   0   42.39    7.53
   1  -4   0   47.75    8.07
   1   4   0   48.21    7.49
  -1  -4   0   50.63    8.63
   1   4   1    0.14    2.75
   1  -4   1    4.22    3.87
  -1  -4  -1   -3.75    4.56
  -1   4  -1   -3.14    3.46
   1  -4   1    0.76    3.79
  -1  -4  -1   -0.89    4.48
   1   4   1   -4.95    3.31
  -1   4  -1    8.17    4.79
   1  -4   1   -0.47    3.58
  -1   4  -1    3.10    2.87
  -1   4  -2    2.37    3.61
   1  -4   2    1.08    3.70
   1  -4   3   26.65    6.03
  -1   4  -3   25.56    6.08
  -1   4  -4    2.22    3.20
   1  -4   4    5.22    3.42
   1  -4   4    2.35    3.97
   1  -4   5    0.12    2.94
   1  -4   5    8.50    3.88
  -1   4  -5    7.63    3.85
   2   0 -11   -1.30    2.23
   2   0 -11   -0.19    2.14
   2   0 -11   -2.30    2.26
  -2   0  11   -1.59    2.09
   2   0 -10  102.88    8.87
   2   0  -9   -2.57    2.50
  -2   0   9   -1.48    1.82
  -2   0   9   -2.09    2.36
  -2   0   9   -2.28    2.15
   2   0  -9    0.72    1.84
   2   0  -9   -2.98    2.19
   2   0  -9   -1.42    1.57
   2   0  -8    5.79    2.38
   2   0  -8    6.46    2.54
   2   0  -8    8.18    2.67
  -2   0   8    6.60    2.01
  -2   0   8    5.83    2.25
   2   0  -8    4.02    2.35
  -2   0   8    3.06    1.91
  -2   0   7   -7.26    3.45
   2   0  -7    6.20    2.29
   2   0  -7    7.35    3.57
  -2   0   7   -5.03    2.22
   2   0  -7    8.52    3.00
   2   0  -7    6.53    2.90
   2   0  -7   17.77    3.79
  -2   0   7   -3.75    2.05
   2   0  -6  115.23    5.44
  -2   0   6  125.70    6.89
   2   0  -6  114.71    7.20
   2   0  -6  117.78    6.60
   2   0  -6  110.74    6.95
   2   0  -6  116.92    7.25
  -2   0   6  125.33    7.44
  -2   0   6  131.62    8.23
   2   0  -5   -1.29    0.94
  -2   0   5   -0.01    0.82
   2   0  -5   -0.81    0.84
   2   0  -5   -0.72    0.98
   2   0  -5    0.47    0.91
   2   0  -4 9887.18   54.49
   2   0  -4 9999.00   49.22
   2   0  -3   -0.23    0.66
   2   0  -3    0.54    0.57
   2   0  -3   -0.41    0.58
   2   0  -3   -0.41    0.76
  -2   0   3   -0.98    0.72
   2   1 -12   10.31    4.14
   2   1 -12    8.26    3.67
   2   1 -11   35.91    5.63
   2  -1 -11   19.14    4.52
   2   1 -11   24.34    5.32
   2   1 -11   25.14    4.90
  -2  -1  11   24.23    5.27
   2  -1 -11   20.99    4.83
   2   1 -10   37.26    4.98
  -2   1  10   39.76    6.05
   2  -1 -10   26.38    5.86
   2   1 -10   37.19    5.20
   2   1 -10   46.85    6.26
   2  -1 -10   40.07    6.01
  -2   1  10   39.43    5.65
   2   1 -10   38.82    5.95
  -2  -1  10   46.27    6.68
  -2  -1  10   40.58    5.57
  -2   1   9   38.87    5.57
   2   1  -9   39.66    5.50
   2  -1  -9   46.61    5.95
   2   1  -9   45.86    5.46
  -2  -1   9   38.37    5.41
   2  -1  -9   42.87    4.94
  -2   1   9   41.31    4.74
   2  -1  -9   41.82    4.90
   2  -1  -9   40.08    5.44
  -2  -1   9   45.55    5.85
   2   1  -9   47.29    6.24
  -2   1   9   36.22    4.99
   2   1  -9   45.25    5.78
   2   1  -8   66.62    6.20
   2  -1  -8   62.83    6.38
  -2   1   8   61.81    6.32
   2   1  -8   65.90    6.61
   2  -1  -8   67.15    6.69
  -2   1   8   58.32    5.43
   2  -1  -8   62.75    5.59
   2   1  -8   65.75    6.54
   2  -1  -8   68.18    5.66
  -2  -1   8   66.71    6.72
   2  -1  -8   61.47    5.58
  -2  -1   8   64.21    6.09
   2   1  -8   61.99    5.82
  -2   1   8   60.43    6.38
   2   1  -7  271.95   11.07
   2   1  -7  262.83    8.96
  -2   1   7  267.13   12.59
   2  -1  -7  261.32   11.94
   2   1  -7  264.64   11.40
  -2   1   7  261.91    9.95
   2   1  -7  259.19   12.27
   2  -1  -7  228.34    9.21
  -2   1   7  254.61   10.72
   2  -1  -7  287.28   12.82
  -2   1   7  247.07   10.78
   2  -1  -7  267.72   11.19
  -2   1   7  270.89   11.83
   2  -1  -7  264.90   11.30
   2   1  -7  269.01   12.37
  -2  -1   7  280.83   12.84
  -2  -1   7  275.73   11.55
  -2  -1   7  245.56    8.91
  -2  -1   6 1346.30   25.06
   2   1  -6 1341.98   25.88
   2   1  -6 1345.58   24.34
  -2  -1   6 1321.81   23.78
  -2   1   6 1317.70   25.96
   2  -1  -6 1310.76   24.21
   2  -1  -6 1301.18   25.52
  -2  -1   6 1314.57   19.98
  -2   1   6 1367.68   24.10
  -2   1   6 1340.01   23.48
   2  -1  -6 1313.66   23.31
   2  -1  -6 1333.53   19.44
   2  -1  -6 1296.12   23.62
   2   1  -6 1339.48   25.43
  -2   1   6 1318.12   19.69
   2  -1  -6 1326.88   19.55
   2   1  -6 1338.52   22.54
  -2   1   6 1251.11   24.35
   2   1  -6 1357.47   19.49
  -2  -1   5  508.08   14.52
   2   1  -5  533.43   14.82
   2  -1  -5  501.97   13.99
  -2   1   5  505.93   15.06
   2   1  -5  518.07   12.92
   2   1  -5  540.51   15.35
   2   1  -5  511.44   15.05
   2  -1  -5  493.05   14.88
  -2   1   5  516.94   14.21
  -2   1   5  526.85   14.41
   2  -1  -5  504.77   14.02
   2   1  -5  505.20   11.72
   2  -1  -5  497.15   10.95
  -2   1   5  523.13   10.85
  -2   1   5  510.45   14.23
  -2   1   5  516.35   10.87
  -2  -1   5  479.41   12.00
   2  -1  -5  503.18   14.21
   2   1  -4   28.20    3.32
   2   1  -4   21.79    3.16
  -2   1   4   23.48    3.18
   2   1  -4   27.54    2.89
  -2  -1   4   22.94    3.08
   2  -1  -4   23.27    3.16
  -2   1   4   22.37    2.98
  -2   1   4   24.83    3.11
   2   1  -4   24.60    2.82
   2   1  -4   22.26    3.14
   2  -1  -4   26.13    3.23
   2  -1  -4   26.48    2.97
  -2  -1   4   28.54    3.38
  -2  -1   4   25.78    3.10
   2  -1  -4   22.53    2.42
   2  -1  -4   25.99    3.30
  -2  -1   3  406.98   12.22
   2   1  -3  380.51   11.93
   2   1  -3  356.43   11.29
  -2   1   3  362.44   11.45
   2  -1  -3  377.45   11.79
   2   1  -3  376.88    9.84
   2  -1  -3  345.39   11.31
   2  -1  -3  373.30   10.19
  -2   1   3  368.90   11.28
   2  -1  -3  367.79    9.74
  -2  -1   3  392.97   11.61
  -2   1   3  367.48   11.37
  -2  -1   3  421.33   12.23
  -2   1   3  360.17    9.57
   2   1  -3  388.54   10.77
   2  -1  -3  368.10   11.42
   2   1  -3  396.61   11.72
  -2   1   2    1.32    1.07
  -2  -1   2    1.57    0.95
   2   1  -2    1.20    1.10
   2  -1  -2    0.73    1.06
   2  -1  -2    0.64    0.71
  -2   1   2    1.24    0.83
   2  -1  -2    0.79    0.87
   2   1  -2    3.11    1.18
   2   1  -2    0.53    0.78
  -2   1   2    0.60    1.10
  -2   1   2    1.97    1.01
   2  -1  -2    0.18    0.76
   2  -1  -1   47.49    4.04
   2  -1  -1   46.13    3.87
  -2   1   1   45.43    4.19
  -2   1   1   46.83    4.26
   2  -1  -1   47.25    4.02
   2   2 -12   -1.60    3.19
   2   2 -11   18.17    4.54
   2   2 -11   12.01    4.62
   2   2 -11   27.26    5.92
  -2  -2  11   20.24    5.46
   2  -2 -10   23.75    5.82
   2   2 -10   23.50    6.48
  -2   2  10   25.24    6.62
   2  -2 -10   27.64    5.83
   2   2 -10   36.64    6.93
   2  -2 -10   25.24    6.40
  -2   2  10   24.80    4.85
  -2  -2  10   36.54    7.30
   2   2 -10   27.84    6.29
   2   2  -9    5.65    3.04
   2  -2  -9    4.53    3.37
  -2   2   9   12.83    4.19
   2  -2  -9    7.47    3.65
   2  -2  -9    4.92    2.65
  -2  -2   9    5.63    3.30
   2   2  -9   11.52    4.18
  -2   2   9    9.24    3.09
   2  -2  -9    3.82    2.13
   2   2  -9    5.60    3.35
   2  -2  -8    3.94    2.57
  -2  -2   8    1.44    2.59
   2   2  -8   -0.99    2.29
   2  -2  -8    2.46    1.94
  -2   2   8    0.06    2.64
  -2   2   8    4.12    2.68
   2   2  -8   -1.82    2.42
   2  -2  -8    5.03    2.92
   2  -2  -8    2.31    2.36
  -2   2   8    3.92    2.21
  -2  -2   8    1.51    2.74
  -2   2   8    2.94    2.02
   2   2  -8    4.28    2.47
  -2  -2   7   30.49    5.16
   2   2  -7   33.80    5.28
  -2  -2   7   34.54    4.77
  -2   2   7   31.12    5.05
  -2   2   7   31.47    5.06
   2  -2  -7   27.86    4.38
   2  -2  -7   25.47    4.53
   2  -2  -7   30.40    5.19
  -2   2   7   35.63    5.23
  -2  -2   7   35.79    5.63
   2   2  -7   33.78    5.33
   2   2  -7   37.22    4.85
   2   2  -7   29.58    4.91
   2  -2  -7   27.35    4.81
  -2   2   7   29.75    4.14
   2   2  -6   67.07    7.29
  -2   2   6   53.60    5.45
  -2   2   6   60.95    6.83
   2  -2  -6   48.92    6.17
   2  -2  -6   56.44    5.80
   2  -2  -6   53.84    6.65
   2   2  -6   60.99    6.02
   2  -2  -6   56.41    6.85
  -2   2   6   63.03    6.92
  -2   2   6   62.00    7.01
  -2  -2   6   58.25    6.74
   2   2  -6   62.40    6.52
  -2  -2   6   52.62    6.22
  -2  -2   6   56.11    6.54
  -2   2   6   53.76    5.46
  -2  -2   6   59.78    6.24
   2   2  -6   64.11    6.86
   2   2  -5  776.06   22.12
  -2   2   5  780.44   21.83
   2  -2  -5  764.03   18.25
   2   2  -5  756.71   20.30
   2   2  -5  757.69   21.03
   2  -2  -5  732.29   21.39
  -2   2   5  726.51   21.66
  -2   2   5  791.59   22.41
   2  -2  -5  743.13   22.14
   2   2  -5  750.07   20.49
  -2  -2   5  771.09   20.97
  -2  -2   5  737.69   21.81
  -2  -2   5  774.36   21.54
  -2   2   5  755.34   17.80
   2  -2  -5  746.62   22.15
  -2   2   5  739.64   19.01
  -2  -2   4  671.21   20.12
   2  -2  -4  650.89   18.30
   2   2  -4  635.80   19.58
   2   2  -4  645.21   18.73
   2  -2  -4  632.28   18.78
  -2   2   4  656.96   17.76
  -2   2   4  637.55   19.59
  -2   2   4  686.59   20.24
   2   2  -4  636.47   17.77
   2   2  -4  670.22   18.62
  -2   2   4  665.73   19.03
  -2  -2   4  646.61   18.11
   2  -2  -4  663.00   20.25
   2  -2  -4  631.06   19.87
  -2  -2   4  667.17   20.08
  -2  -2   3    1.27    1.77
  -2  -2   3   -0.29    1.10
   2   2  -3   -0.77    1.78
   2  -2  -3   -1.64    1.95
   2  -2  -3   -0.50    1.68
  -2   2   3   -3.05    2.35
   2  -2  -3   -0.25    1.56
   2   2  -3    0.32    1.49
  -2  -2   3   -0.43    1.65
   2   2  -3   -0.85    1.37
   2   2  -3   -1.39    1.64
   2  -2  -3   -1.34    1.72
   2   2  -3    0.49    1.28
  -2   2   3   -2.57    1.84
  -2   2   3   -1.59    1.94
  -2   2   3   -1.18    1.68
  -2  -2   3   -2.61    1.79
  -2  -2   2    0.95    1.17
  -2  -2   2    4.51    2.48
   2  -2  -2    3.31    1.66
   2   2  -2    2.81    1.85
   2  -2  -2    1.52    1.80
  -2   2   2    3.15    2.11
  -2   2   2    5.00    2.44
   2  -2  -2    3.86    2.18
  -2  -2   2    2.99    2.37
   2   2  -2    0.64    1.50
   2   2  -2    0.21    1.49
   2   2  -2    2.24    1.61
  -2   2   2    1.38    1.96
   2  -2  -2    2.61    2.32
  -2   2   2    1.78    2.23
  -2  -2   1   37.53    5.10
   2   2  -1   39.40    4.73
  -2   2   1   40.36    4.64
  -2  -2   1   36.73    4.36
   2   2  -1   36.52    4.14
   2   2  -1   39.58    4.98
   2  -2  -1   35.73    4.34
  -2   2   1   38.35    4.65
  -2   2   1   43.27    5.72
   2   2  -1   32.75    3.76
  -2   2   1   38.42    4.79
   2  -2  -1   36.65    4.76
  -2  -2   1   42.99    5.63
   2  -2  -1   32.06    4.61
   2  -2  -1   38.97    5.04
   2  -2   0   66.41    6.23
  -2   2   0   67.81    5.66
   2  -2   0   63.34    6.01
  -2   2   0   64.90    6.32
  -2   2   0   69.80    6.95
  -2   2   0   68.25    6.37
   2  -2   0   63.59    6.18
   2  -2   1   -1.08    1.44
  -2   2  -1    1.54    1.38
   2  -2   1    1.14    1.46
   2  -2   1    2.70    2.09
  -2   2  -1    0.24    1.80
  -2   2  -1    0.85    1.64
  -2  -3  12   12.45    7.53
   2   3 -12   31.43    6.93
   2   3 -12   22.26    5.92
  -2  -3  12   31.92    7.95
  -2  -3  11    6.38    5.95
   2   3 -11   11.36    5.36
   2   3 -11    6.63    4.31
  -2  -3  11    1.88    4.27
  -2  -3  10    2.24    3.47
   2   3 -10    5.33    3.87
   2   3 -10    3.43    3.69
   2   3 -10    2.19    3.40
  -2  -3  10    1.52    4.15
  -2  -3  10   -0.45    3.90
   2   3  -9   32.50    6.69
  -2   3   9   28.89    6.56
   2   3  -9   20.92    6.91
   2  -3  -9   24.99    5.42
   2  -3  -9   25.72    5.89
   2  -3  -9   25.58    5.67
   2   3  -9   27.86    5.64
  -2  -3   9   20.76    6.41
  -2   3   9   31.17    6.08
  -2  -3   9   26.94    5.86
  -2  -3   9   18.35    6.10
  -2  -3   8    0.18    2.70
   2  -3  -8   -0.06    3.85
  -2  -3   8   -2.78    4.12
   2   3  -8    2.20    3.22
  -2   3   8    2.77    3.24
  -2   3   8   -8.04    4.52
   2  -3  -8    1.95    2.81
   2  -3  -8   -1.02    3.08
   2   3  -8    2.66    3.54
   2   3  -8   -2.72    3.14
  -2  -3   8    1.48    3.12
  -2   3   8    0.03    2.56
  -2  -3   8   -4.53    4.46
   2   3  -7  161.95   12.84
  -2   3   7  136.93   11.21
   2  -3  -7  133.75   11.60
   2  -3  -7  142.40   11.97
  -2   3   7  152.79   12.47
  -2   3   7  136.59   11.72
   2   3  -7  148.21   11.53
  -2  -3   7  153.96   11.86
  -2  -3   7  140.52   11.97
  -2  -3   6   44.44    8.36
   2   3  -6   66.67    8.36
  -2   3   6   73.40    8.12
   2  -3  -6   64.83    7.73
  -2   3   6   79.30    8.95
  -2   3   6   68.20    8.47
   2  -3  -6   67.21    8.85
   2   3  -6   79.02    8.61
   2  -3  -6   63.91    8.75
  -2  -3   6   70.92    8.77
   2   3  -5  190.04   12.82
   2   3  -5  198.10   13.49
  -2   3   5  177.76   12.14
   2  -3  -5  180.88   12.45
  -2   3   5  187.87   13.36
  -2   3   5  180.65   13.14
   2  -3  -5  178.47   13.43
  -2   3   5  185.73   12.11
   2  -3  -5  200.50   13.94
  -2  -3   5  198.88   14.10
   2   3  -4  134.90   10.89
  -2   3   4  124.06    9.69
   2  -3  -4  120.16    9.76
  -2   3   4  131.09   10.96
  -2   3   4  137.71   11.18
   2   3  -4  132.78   10.47
  -2   3   4  132.06   10.12
   2  -3  -4  128.16   10.97
   2  -3  -4  112.79   10.61
  -2  -3   4  150.57   12.58
   2  -3  -4  120.57   10.30
  -2  -3   3   85.44    8.86
   2   3  -3   88.85    8.54
  -2   3   3   85.04    7.96
   2   3  -3   95.66    9.13
   2  -3  -3   87.53    8.95
   2  -3  -3   84.95    7.69
  -2   3   3   79.63    8.52
  -2   3   3   83.78    8.35
  -2   3   3   89.54    9.09
  -2  -3   3   91.44    9.65
   2  -3  -3   74.40    7.92
   2  -3  -3   71.25    8.61
  -2  -3   2  127.28   10.85
  -2  -3   2  131.46   11.78
  -2   3   2  117.77   10.63
   2   3  -2  122.61   10.03
  -2   3   2  112.69    9.73
   2   3  -2  127.38   10.58
   2  -3  -2  115.92    9.98
   2  -3  -2  110.85   10.01
  -2   3   2  127.74   10.60
   2  -3  -2  102.19    9.89
  -2   3   1    3.75    2.86
   2  -3  -1    4.64    2.94
  -2  -3   1    6.62    3.28
   2   3  -1    8.06    3.27
   2  -3  -1    7.82    3.80
   2  -3  -1    5.41    3.17
  -2   3   1    3.03    2.58
   2   3  -1    3.59    3.08
  -2   3   1    7.76    3.72
   2   3  -1    2.62    2.49
  -2  -3   1    4.90    2.94
   2  -3   0   18.49    4.48
  -2   3   0   18.17    4.38
   2  -3   0   11.73    3.74
  -2   3   0   20.50    5.11
  -2   3   0   15.41    4.29
   2  -3   0   16.21    4.48
  -2   3  -1   19.00    4.71
   2  -3   1   10.71    4.22
  -2   3  -1   14.11    4.39
   2  -3   1   13.85    4.26
  -2   3  -1   17.03    4.79
   2  -3   1   12.89    4.29
  -2   3  -2   -0.12    2.90
   2  -3   2    5.30    2.81
   2  -3   2    0.17    2.51
  -2   3  -2    0.16    2.30
  -2  -4   9    0.74    4.13
   2   4  -9    7.39    4.50
  -2  -4   8   -0.95    4.00
   2  -4  -8    6.18    4.21
  -2  -4   8    4.15    4.60
   2  -4  -8   10.48    5.30
   2   4  -8   15.76    6.30
  -2   4   8    8.51    4.87
  -2  -4   7   16.82    6.97
  -2  -4   7    2.72    4.75
   2   4  -7   12.81    6.11
   2  -4  -7    1.15    4.70
  -2   4   7   17.96    6.05
   2  -4  -7    5.34    4.87
   2   4  -7    8.68    4.29
  -2   4   7    4.79    3.23
   2   4  -6  202.22   16.42
   2   4  -6  182.68   15.08
  -2   4   6  186.00   15.28
  -2   4   6  172.69   14.78
   2  -4  -6  174.92   15.91
  -2  -4   6  206.18   17.87
  -2  -4   5   20.60    7.40
   2  -4  -5   18.39    6.93
   2   4  -5   43.28    7.83
  -2   4   5   42.59    7.76
   2   4  -5   37.44    7.10
  -2   4   5   32.81    6.81
   2  -4  -5   30.29    7.15
  -2   4   5   35.23    7.27
   2  -4  -5   28.89    7.19
  -2  -4   5   41.32    8.46
   2  -4  -4    8.97    4.65
   2  -4  -4    3.02    3.48
  -2   4   4    3.01    2.95
  -2  -4   4   -0.04    3.86
  -2   4   4    3.86    3.78
   2  -4  -4    2.95    3.42
   2   4  -4    0.93    4.32
   2   4  -4    2.23    4.08
  -2   4   4    3.35    2.96
  -2  -4   4    2.59    3.79
   2  -4  -3   21.66    6.21
  -2  -4   3   22.22    5.89
  -2   4   3   26.58    6.30
   2  -4  -3   16.63    6.07
   2   4  -3   25.11    5.42
   2  -4  -3   23.92    5.73
  -2   4   3   34.64    7.33
   2   4  -3   27.81    6.11
  -2  -4   3   36.28    7.73
  -2   4   3   27.02    6.26
   2  -4  -2    7.67    4.30
  -2   4   2    3.28    3.88
   2  -4  -2   -0.35    3.39
   2   4  -2    2.93    3.26
   2  -4  -2   -2.02    3.33
  -2   4   2    3.09    3.77
   2   4  -2    1.01    3.95
  -2   4   2   -0.58    2.92
  -2  -4   2   -2.01    4.67
   2  -4  -1   10.85    5.20
  -2   4   1   10.59    5.05
   2  -4  -1    0.36    3.84
   2  -4  -1    8.66    3.79
  -2   4   1   14.76    5.48
   2   4  -1    6.25    3.30
  -2   4   1    5.21    4.51
  -2  -4   1    4.60    3.82
  -2   4   0    3.43    3.40
   2  -4   0    7.07    4.37
   2  -4   0    1.37    3.52
  -2   4   0    4.04    4.54
   2  -4   0    4.96    3.40
  -2   4   0    5.82    5.34
   2  -4   1    0.95    3.09
   2  -4   1   -2.71    4.17
  -2   4  -1    2.37    3.83
   2  -4   1    7.76    4.01
  -2   4  -1    3.35    3.71
  -2   4  -1    3.06    4.26
   2  -4   2    3.47    3.26
   2  -4   2    8.17    3.42
  -2   4  -2    6.95    4.34
  -2   4  -2    1.64    3.79
   3   0 -14   18.45    5.18
   3   0 -14   19.97    5.54
   3   0 -13   -1.41    3.14
   3   0 -13    0.29    3.36
  -3   0  13   -3.14    3.82
   3   0 -12   72.84    8.44
   3   0 -12   72.96    8.69
   3   0 -12   76.07    8.33
  -3   0  12   69.20    8.47
  -3   0  12   69.46    8.40
   3   0 -11    3.71    3.47
  -3   0  11    4.87    3.38
   3   0 -11    0.35    2.56
   3   0 -11   -1.22    2.58
   3   0 -11   -1.09    2.31
  -3   0  11    1.21    3.03
  -3   0  11    3.91    3.54
  -3   0  10  108.55    8.22
   3   0 -10  108.98    8.38
   3   0 -10  106.61    8.88
  -3   0  10   91.76    8.38
  -3   0  10  102.17    9.15
  -3   0   9    1.10    1.70
   3   0  -9   -0.73    2.21
   3   0  -9   -0.98    1.95
   3   0  -9    0.43    2.07
   3   0  -9   -3.69    2.49
  -3   0   9   -0.02    1.98
  -3   0   9   -0.96    2.14
  -3   0   8  828.34   20.09
   3   0  -8  817.01   21.35
   3   0  -8  799.77   19.98
   3   0  -8  830.85   21.71
  -3   0   8  852.99   21.97
  -3   0   8  849.85   22.87
  -3   0   7    1.14    1.08
  -3   0   7   -0.38    1.90
   3   0  -7   -2.44    1.84
   3   0  -7   -1.85    2.13
  -3   0   7   -0.33    1.44
   3   0  -7   -1.51    1.85
   3   0  -7   -2.66    1.90
   3   0  -7   -3.38    2.31
  -3   0   6  229.99    8.75
   3   0  -6  258.04    8.93
  -3   0   6  261.47   10.56
   3   0  -6  232.51   12.03
   3   0  -6  219.89   10.22
   3   0  -6  225.26   11.35
  -3   0   6  230.39   10.56
   3   0  -6  228.97   11.29
   3   0  -5   -0.79    1.02
   3   0  -5   -2.95    1.78
   3   0  -5   -2.14    1.91
   3   0  -5   -2.34    1.79
  -3   0   5   -2.00    1.35
   3   0  -5   -1.61    1.45
  -3   0   5   -1.96    1.55
   3   0  -4   11.64    2.24
   3   0  -4   10.33    2.08
   3   0  -4   10.52    2.15
   3   0  -4   15.51    2.62
  -3   0   4   14.42    2.60
   3   1 -14   19.98    4.94
   3   1 -14   27.69    6.22
  -3  -1  13   12.68    4.85
   3  -1 -13   15.43    4.51
   3   1 -13   13.33    4.21
   3  -1 -13    9.03    4.56
  -3  -1  13   16.16    4.53
   3   1 -13   18.19    5.28
  -3   1  13    4.04    3.54
   3   1 -13    9.11    4.25
  -3   1  12    3.66    3.71
   3  -1 -12    3.54    3.54
   3   1 -12   -3.77    3.72
   3   1 -12   -4.06    3.21
   3  -1 -12   -1.33    3.12
   3   1 -12    2.89    3.46
  -3  -1  12    5.22    3.35
  -3   1  12    1.19    2.88
  -3  -1  12   -3.15    2.99
  -3  -1  11    6.16    2.29
  -3   1  11    9.43    3.71
   3  -1 -11    7.88    3.75
   3   1 -11    2.01    2.44
   3   1 -11   11.10    4.15
   3  -1 -11    8.16    3.65
   3   1 -11    9.59    3.75
  -3  -1  11    7.90    3.65
  -3   1  11   14.52    4.31
  -3  -1  11    6.94    3.00
  -3  -1  10    1.17    1.93
   3   1 -10   -4.57    3.25
  -3   1  10   -0.13    2.70
   3  -1 -10   -0.07    2.85
   3   1 -10    0.51    2.94
   3  -1 -10    1.06    2.32
   3   1 -10    3.61    3.43
   3   1 -10   -0.64    2.28
  -3  -1  10    1.20    2.70
  -3   1  10   -2.14    2.78
  -3  -1  10    2.91    2.81
  -3  -1   9  116.70    8.75
   3   1  -9  132.85    9.14
  -3   1   9  124.41    9.84
   3  -1  -9  123.74    9.57
   3   1  -9  120.73    8.89
   3   1  -9  124.66    9.81
   3  -1  -9  129.18    9.96
   3   1  -9  126.35   10.04
  -3  -1   9  131.24    9.93
  -3   1   9  126.40    9.61
  -3  -1   9  121.47    9.25
  -3  -1   8    0.54    1.65
   3  -1  -8   -0.26    1.66
   3   1  -8    0.32    1.80
   3  -1  -8    0.14    1.97
   3   1  -8   -2.14    1.99
  -3   1   8    0.66    2.21
   3  -1  -8    2.10    2.03
  -3  -1   8    3.26    2.53
   3  -1  -8    0.76    1.78
   3   1  -8    5.09    2.94
  -3   1   8    1.53    2.15
   3   1  -8    1.72    2.44
  -3   1   8    1.55    1.40
  -3   1   8    0.07    1.36
  -3   1   8    3.01    2.40
  -3  -1   8    5.15    2.80
  -3  -1   7  355.79   13.93
   3   1  -7  331.00   13.35
  -3   1   7  362.66   15.01
   3  -1  -7  353.23   14.25
   3   1  -7  346.37   13.21
   3   1  -7  360.80   15.10
   3  -1  -7  357.10   14.63
  -3   1   7  367.36   13.28
  -3   1   7  346.75   12.88
   3  -1  -7  337.87   11.76
  -3   1   7  344.38   11.45
   3  -1  -7  375.01   12.11
   3  -1  -7  367.57   13.38
  -3  -1   7  357.26   14.71
  -3   1   7  356.12   11.74
   3  -1  -7  357.05   13.36
  -3   1   7  350.11   14.24
   3   1  -7  348.18   14.84
  -3  -1   6  659.59   18.44
   3   1  -6  669.24   17.92
  -3   1   6  645.08   18.79
   3  -1  -6  644.51   18.09
   3   1  -6  645.82   16.99
   3   1  -6  674.11   19.61
   3  -1  -6  653.98   18.78
   3  -1  -6  658.19   14.98
  -3   1   6  663.11   17.17
  -3   1   6  653.55   17.12
   3   1  -6  648.33   18.80
   3  -1  -6  638.64   14.45
   3   1  -6  668.05   13.95
  -3   1   6  659.70   14.83
  -3  -1   6  602.80   18.04
   3  -1  -6  663.55   17.14
   3  -1  -6  659.35   17.42
  -3  -1   4   36.13    4.48
   3  -1  -4   22.68    2.85
   3   1  -4   25.76    3.29
  -3   1   4   25.75    3.27
   3  -1  -4   23.05    3.28
   3  -1  -4   21.16    2.84
   3   1  -4   27.62    2.97
  -3   1   4   22.78    3.26
   3  -1  -4   23.17    3.17
   3   1  -4   26.00    3.34
   3  -1  -4   25.22    2.43
   3   1  -4   24.65    3.23
  -3  -1   4   30.54    3.84
  -3   1   4   24.95    3.07
   3  -1  -3    7.06    1.65
  -3   1   3    6.74    1.97
   3  -1  -3    8.37    2.09
   3  -1  -3    8.64    2.22
  -3   1   3    7.18    1.97
  -3  -2  14   38.93    7.30
   3   2 -14   25.76    5.78
  -3  -2  13   25.36    6.35
  -3  -2  13   21.69    5.50
   3   2 -13   26.46    5.97
   3   2 -13   21.29    5.40
   3   2 -13   26.13    6.07
  -3  -2  12   -1.12    3.45
   3   2 -12   -0.10    3.06
  -3   2  12    5.94    3.43
   3  -2 -12    1.57    3.03
   3   2 -12   10.45    4.87
   3  -2 -12    6.14    4.05
   3   2 -12   -9.76    4.96
  -3  -2  12   -0.87    3.56
  -3  -2  11   12.71    4.49
   3   2 -11   20.07    5.59
  -3   2  11   13.19    5.31
   3  -2 -11   16.81    6.23
   3  -2 -11   18.62    5.34
   3   2 -11   14.71    5.34
   3   2 -11   13.64    5.43
  -3  -2  11   10.23    4.63
  -3  -2  11   11.45    4.49
  -3   2  11   15.97    4.66
   3   2 -10    3.10    2.95
   3  -2 -10    0.93    2.73
  -3  -2  10    1.33    2.80
   3   2 -10    5.68    3.01
  -3   2  10    1.05    3.13
   3  -2 -10    0.88    2.89
   3   2 -10    2.35    2.76
   3  -2 -10   -0.50    3.78
   3  -2 -10    2.55    2.89
  -3   2  10    1.86    3.69
  -3  -2  10    4.57    3.48
  -3  -2  10    3.09    3.35
  -3  -2   9  194.89   13.44
   3  -2  -9  197.18   12.97
   3   2  -9  222.17   13.91
  -3   2   9  206.65   13.62
   3  -2  -9  192.99   12.45
   3  -2  -9  201.93   13.51
  -3   2   9  215.34   12.98
  -3   2   9  210.37   12.88
   3   2  -9  225.49   14.15
   3  -2  -9  192.51   13.05
   3   2  -9  225.39   14.48
  -3  -2   9  214.18   13.82
  -3  -2   9  196.13   13.23
  -3   2   9  193.48   11.74
  -3  -2   8  178.00   12.42
   3   2  -8  185.63   12.48
  -3   2   8  183.91   12.76
   3  -2  -8  174.17   11.21
   3   2  -8  176.95   12.20
   3  -2  -8  158.53   12.02
  -3   2   8  182.22   11.90
  -3   2   8  177.95   11.77
   3  -2  -8  171.32   12.04
   3   2  -8  195.20   12.86
  -3  -2   8  193.16   12.62
  -3  -2   8  184.14   12.26
   3  -2  -8  182.94   12.43
  -3   2   8  169.94   10.68
  -3  -2   7  440.93   18.73
   3   2  -7  470.11   18.98
  -3   2   7  456.04   18.71
   3  -2  -7  459.24   17.27
   3  -2  -7  442.95   18.81
  -3   2   7  472.12   18.63
  -3   2   7  486.20   19.07
   3   2  -7  440.59   18.47
   3  -2  -7  478.66   19.24
  -3  -2   7  478.96   18.80
  -3   2   7  477.63   17.01
   3  -2  -7  456.64   18.67
   3   2  -7  511.22   19.15
  -3  -2   6   42.03    6.35
  -3   2   6   39.68    6.36
   3  -2  -6   31.68    5.25
   3   2  -6   40.96    6.15
   3  -2  -6   40.65    6.48
  -3   2   6   50.01    7.01
   3   2  -6   42.94    5.42
  -3  -2   6   43.16    6.33
   3  -2  -6   33.91    5.31
  -3  -2   6   47.11    6.57
   3  -2  -6   39.53    6.03
  -3  -2   5  175.43   11.45
   3   2  -5  176.45   11.14
  -3   2   5  179.03   10.82
   3  -2  -5  159.24    9.09
   3   2  -5  156.35   10.05
   3  -2  -5  176.83   11.12
  -3   2   5  181.78   11.11
  -3   2   5  173.92   11.16
   3   2  -5  163.01   10.43
  -3   2   5  169.73    9.47
   3   2  -5  183.75   10.49
  -3  -2   5  171.92   10.55
   3  -2  -5  175.35   11.14
  -3  -2   5  191.89   11.61
   3  -2  -5  161.36    9.32
  -3   2   5  177.20    9.44
   3  -2  -5  176.50   11.25
  -3  -2   4   83.13    7.79
  -3  -2   4   58.33    6.63
   3   2  -4   79.44    7.35
  -3   2   4   77.70    7.00
  -3   2   4   80.05    7.41
   3  -2  -4   80.21    7.16
  -3   2   4   85.11    7.56
   3   2  -4   82.41    7.00
   3   2  -4   80.01    7.05
  -3   2   4   82.91    6.69
   3  -2  -4   89.22    7.91
   3  -2  -4   75.29    6.48
   3  -2  -4   77.59    7.53
  -3  -2   3   24.79    4.66
   3   2  -3   26.13    4.15
  -3   2   3   35.19    4.74
   3  -2  -3   28.30    4.68
   3  -2  -3   30.15    4.65
  -3   2   3   34.36    5.35
   3  -2  -3   26.70    4.57
   3   2  -3   29.04    4.25
   3   2  -3   25.13    4.07
  -3   2   3   30.61    5.00
  -3   2   3   31.13    4.43
   3  -2  -3   27.82    4.26
  -3   2   2   28.64    4.62
   3  -2  -2   28.68    4.53
   3  -2  -2   26.16    4.14
  -3   2   2   32.25    4.40
   3  -2  -2   31.56    4.21
  -3   2   2   28.05    4.05
  -3   2   2   31.94    4.66
   3  -2  -2   26.99    4.02
   3  -2  -1    9.62    2.86
  -3   2   1    8.59    3.10
  -3   2   1    8.27    2.64
   3  -2  -1    9.11    3.00
   3  -2  -1    6.13    2.09
  -3  -3  13   11.52    6.43
   3   3 -13   12.68    5.11
  -3  -3  13   17.81    7.24
   3   3 -13   21.27    6.91
   3   3 -13   18.77    5.83
  -3  -3  13   14.09    4.81
  -3  -3  12   -0.11    5.05
   3   3 -12   -4.50    4.81
   3   3 -12    5.56    4.56
   3   3 -12    0.28    4.17
  -3  -3  12   -1.04    4.11
  -3  -3  12    7.14    5.43
   3  -3 -11    3.71    2.90
  -3  -3  11   12.72    5.98
   3   3 -11    5.15    4.28
  -3   3  11    5.87    4.39
   3   3 -11    5.81    4.28
   3  -3 -11    7.01    3.79
   3  -3 -11   -0.69    3.72
  -3  -3  11    4.50    4.37
   3   3 -11    6.14    4.28
  -3  -3  11    7.93    5.07
  -3   3  11    5.10    3.82
   3  -3 -10    1.74    3.49
  -3  -3  10    1.72    3.88
   3   3 -10   -7.18    4.45
  -3   3  10   -1.74    3.63
   3   3 -10    4.70    4.43
   3  -3 -10   -4.34    4.31
   3  -3 -10   -1.47    3.55
   3   3 -10   -0.76    3.55
  -3  -3  10    3.40    4.06
  -3  -3  10   -0.81    3.42
  -3   3  10   13.44    5.46
  -3   3  10    2.77    3.33
   3   3  -9  114.38   11.66
  -3   3   9   88.42    9.87
   3  -3  -9   73.22    9.74
  -3   3   9  102.67   11.06
  -3   3   9   95.59   10.22
   3  -3  -9   85.67   10.34
   3   3  -9  116.77   11.20
  -3  -3   9  107.53   11.30
   3  -3  -9   90.92   10.69
   3   3  -8  269.67   17.27
  -3   3   8  241.18   15.72
   3  -3  -8  239.64   16.21
  -3   3   8  237.32   15.81
  -3   3   8  225.98   15.50
   3   3  -8  261.75   15.58
   3  -3  -8  241.27   16.71
  -3  -3   8  236.00   15.80
   3  -3  -8  216.09   16.65
   3   3  -7  193.08   14.31
  -3   3   7  174.01   13.06
   3  -3  -7  176.61   13.60
  -3   3   7  182.88   13.88
  -3   3   7  193.63   14.18
   3   3  -7  169.25   12.10
   3   3  -7  189.76   13.11
   3  -3  -7  185.59   14.51
  -3  -3   7  185.36   13.21
  -3  -3   7  188.63   14.86
   3  -3  -6   10.89    5.98
  -3   3   6   19.21    5.24
   3  -3  -6   18.44    5.33
   3   3  -6   20.93    5.99
  -3   3   6   22.97    6.14
   3   3  -6   13.64    3.99
   3  -3  -6   17.99    5.15
  -3   3   6   20.20    5.38
  -3   3   5   45.82    7.01
  -3  -3   5   24.95    6.77
   3   3  -5   40.31    7.65
   3  -3  -5   34.86    7.20
   3  -3  -5   23.02    6.57
  -3   3   5   48.19    7.13
   3  -3  -5   44.68    7.02
   3   3  -5   46.64    6.59
  -3   3   5   52.60    7.66
  -3  -3   5   55.75    8.51
  -3  -3   4    7.11    4.35
   3  -3  -4    8.53    3.79
  -3   3   4   15.84    4.41
   3   3  -4   13.27    4.43
   3  -3  -4    9.39    2.99
   3  -3  -4    3.18    3.94
  -3   3   4   17.85    4.64
   3  -3  -4    9.49    3.40
   3   3  -4   14.05    4.23
  -3   3   4   17.24    5.18
  -3   3   4   10.02    3.87
  -3  -3   4    9.59    3.35
  -3  -3   3   -2.78    2.96
   3  -3  -3   -0.01    2.28
  -3   3   3    0.41    2.70
   3   3  -3   -0.17    2.57
  -3   3   3   -4.48    3.34
   3  -3  -3    1.18    3.02
  -3   3   3   -7.71    4.59
  -3   3   3    2.76    3.67
   3  -3  -3   -3.04    2.55
   3  -3  -3    1.43    2.66
   3   3  -3   -2.36    2.04
   3  -3  -2    0.82    2.48
   3  -3  -2   -1.93    3.17
  -3   3   2   -2.25    2.66
   3  -3  -2   -1.04    2.98
  -3   3   2   -0.86    2.37
  -3   3   2    1.37    3.52
  -3   3   2    4.81    2.87
   3  -3  -1    0.52    2.37
   3  -3  -1    2.90    2.28
  -3   3   1    1.67    2.56
   3  -3  -1    3.31    3.23
  -3   3   1   -0.35    3.49
  -3   3   1    2.68    2.84
   3  -3   0   26.40    4.88
   3  -3   0   18.19    4.90
  -3   3   0   27.45    5.93
  -3   4   9   44.15    9.01
   3  -4  -9   38.92    7.83
  -3   4   8   32.79    7.70
  -3  -4   8   12.32    6.56
   3  -4  -8   12.39    6.69
   3   4  -8   47.55    9.24
  -3   4   8   30.67    7.72
   3  -4  -8   30.74    8.22
   3   4  -7  231.98   17.99
  -3   4   7  254.86   18.12
  -3   4   7  223.83   17.76
   3   4  -7  218.02   16.26
   3  -4  -7  224.85   18.34
  -3  -4   7  248.24   20.00
   3   4  -6  205.10   16.12
  -3   4   6  163.42   14.96
  -3   4   6  201.20   16.75
   3  -4  -6  192.18   16.87
  -3  -4   6  202.51   17.84
   3   4  -6  197.69   15.79
  -3  -4   5   -0.87    4.50
  -3   4   5    7.52    5.13
   3  -4  -5   -0.09    4.16
   3   4  -5    2.46    4.10
   3  -4  -5    4.39    4.37
  -3   4   5   10.81    5.28
   3   4  -5   -2.76    3.34
  -3  -4   5    0.82    3.16
   3  -4  -4   53.83    8.66
   3   4  -4   60.83    8.75
   3  -4  -4   31.97    9.25
   3  -4  -4   59.21    9.33
  -3   4   4   77.28   10.57
  -3   4   4   74.66   10.21
   3   4  -4   59.17    8.51
  -3   4   4   61.71    9.08
   3  -4  -3    2.33    3.58
  -3   4   3    2.56    3.19
   3  -4  -3    3.11    4.19
  -3   4   3    2.61    4.13
  -3   4   3    5.50    3.97
   3  -4  -3    0.80    3.42
   3  -4  -2    1.45    3.12
   3  -4  -2   -1.38    3.42
  -3   4   2   -3.39    3.75
  -3   4   2    9.11    5.33
   3  -4  -2   -4.56    3.55
  -3   4   2   -2.76    3.22
   3  -4  -1   26.38    6.25
   3  -4  -1    9.78    4.49
  -3   4   1   22.49    6.15
   3  -4  -1   29.74    7.10
  -3   4   1   23.01    5.99
  -3   4   1   30.86    6.97
   3  -4   0   -0.47    2.99
   3  -4   0   -0.79    3.60
  -3   4   0    2.65    4.13
   4   0 -16   13.05    4.21
   4   0 -15    2.58    4.02
   4   0 -15   -2.34    4.17
  -4   0  15   -2.27    3.46
   4   0 -14   11.46    4.36
   4   0 -14   13.07    4.66
   4   0 -14   18.10    5.00
  -4   0  14   25.30    5.47
  -4   0  14   25.47    6.03
  -4   0  14   18.78    5.75
   4   0 -13   -4.16    3.70
   4   0 -13    3.06    3.59
   4   0 -13    0.42    3.60
  -4   0  13    8.13    4.11
  -4   0  13   -1.21    3.81
  -4   0  13    2.39    3.74
   4   0 -12   14.41    4.73
   4   0 -12   18.66    5.16
   4   0 -12    8.13    3.29
  -4   0  12   15.21    4.45
  -4   0  12    9.92    4.14
  -4   0  12    7.61    4.03
  -4   0  11   -5.38    3.16
   4   0 -11    2.67    2.99
   4   0 -11    3.19    2.77
   4   0 -11   -2.22    3.22
   4   0 -11   -2.44    2.98
  -4   0  11    4.88    2.97
  -4   0  11    1.46    2.58
  -4   0  11    1.72    3.05
  -4   0  10   -1.23    2.00
   4   0 -10    7.00    3.42
   4   0 -10    2.85    2.45
   4   0 -10   -1.95    2.99
   4   0 -10    1.03    2.10
  -4   0  10   -0.20    2.63
  -4   0  10    0.10    2.52
  -4   0  10    4.56    3.34
  -4   0   9   -2.89    2.82
   4   0  -9   -0.02    2.24
  -4   0   9   -2.73    2.39
   4   0  -9   -1.20    2.12
   4   0  -9   -0.21    2.13
   4   0  -9    0.38    1.97
  -4   0   9    0.32    2.38
  -4   0   8  121.87    8.19
   4   0  -8  120.08    7.97
   4   0  -8  108.14    8.30
   4   0  -8  113.05    8.61
  -4   0   8  120.96    8.67
   4   0  -7   -2.66    1.94
   4   0  -7   -2.09    1.88
  -4   0   7   -0.17    1.48
   4   0  -7   -3.81    2.22
   4   0  -7   -0.82    1.87
  -4   0   7    0.70    1.48
   4   0  -6   18.80    2.75
   4   0  -6   13.06    3.42
  -4   0   6   18.83    3.26
   4   0  -6   18.77    3.33
   4   0  -6   14.07    3.16
   4   0  -6   15.30    3.40
  -4   0   6   21.74    3.74
   4   1 -16    6.00    3.85
   4   1 -16    7.51    4.56
  -4  -1  16   12.35    5.19
   4  -1 -15   18.92    6.59
   4   1 -15   21.67    6.04
   4  -1 -15    8.19    4.13
   4   1 -15   20.19    5.38
   4   1 -15   24.09    6.37
  -4  -1  15   31.07    7.22
  -4  -1  15   25.83    7.12
  -4   1  15    6.59    4.34
  -4  -1  15   17.53    5.31
  -4   1  14    7.79    6.06
   4  -1 -14   21.24    5.98
   4   1 -14   15.28    5.00
   4  -1 -14   17.02    5.28
   4   1 -14   24.59    6.03
   4   1 -14   16.08    5.07
  -4  -1  14   25.17    6.02
  -4  -1  14   30.09    6.54
  -4   1  14   13.75    5.30
  -4  -1  14   14.57    4.48
  -4   1  13    1.87    3.86
   4  -1 -13   -1.45    3.97
   4   1 -13    4.21    3.76
   4  -1 -13    1.74    3.45
   4   1 -13    3.87    3.67
   4   1 -13    1.26    3.18
  -4  -1  13    3.51    3.07
  -4  -1  13    1.56    3.19
  -4   1  13   -2.62    3.60
  -4  -1  13    0.23    3.03
  -4   1  12    5.09    4.98
   4  -1 -12   21.59    5.59
   4   1 -12   18.35    5.14
   4  -1 -12   16.45    5.08
   4   1 -12   21.64    5.80
   4   1 -12   18.69    5.57
  -4  -1  12   22.36    5.62
  -4  -1  12   20.70    5.55
  -4   1  12   12.36    5.26
  -4  -1  12   17.49    4.21
  -4   1  11   43.01    6.55
   4  -1 -11   50.44    7.53
   4   1 -11   49.91    6.90
   4  -1 -11   54.74    7.37
   4   1 -11   56.86    8.24
   4   1 -11   54.18    7.84
  -4  -1  11   43.71    6.95
  -4  -1  11   57.43    7.65
  -4  -1  11   60.14    7.82
  -4   1  11   53.14    7.53
  -4  -1  10   67.05    7.17
  -4   1  10   70.09    8.28
   4  -1 -10   62.65    7.42
   4   1 -10   61.59    7.24
   4  -1 -10   52.69    6.94
   4   1 -10   67.03    8.23
   4   1 -10   69.20    8.17
  -4  -1  10   56.69    7.30
  -4  -1  10   66.11    8.12
  -4   1  10   65.33    7.73
  -4  -1  10   61.43    7.12
  -4  -1   9  319.06   14.94
   4   1  -9  318.06   14.32
  -4   1   9  317.93   15.80
   4   1  -9  321.50   14.99
   4  -1  -9  317.21   15.71
   4   1  -9  329.98   16.65
   4   1  -9  312.26   15.84
  -4  -1   9  303.41   15.51
  -4   1   9  325.87   15.83
  -4  -1   9  328.49   15.18
  -4  -1   8   16.52    3.91
  -4   1   8   11.85    3.03
   4   1  -8   11.85    3.26
   4  -1  -8   12.28    3.54
   4   1  -8   10.66    2.90
  -4   1   8   10.06    3.38
   4  -1  -8   15.79    3.69
   4   1  -8   13.62    3.92
   4   1  -8    7.55    2.87
  -4   1   8   10.65    3.07
  -4  -1   8    9.24    2.84
   4  -1  -8    9.06    2.70
  -4  -1   7   52.60    6.10
   4   1  -7   54.78    5.79
  -4   1   7   43.87    5.53
   4  -1  -7   51.26    5.92
   4   1  -7   53.25    5.83
   4  -1  -7   44.52    5.61
  -4   1   7   52.18    5.23
   4   1  -7   51.03    6.24
   4   1  -7   52.18    6.04
  -4   1   7   47.93    5.61
  -4  -1   7   52.63    6.12
   4  -1  -7   43.50    4.74
   4  -1  -7   42.81    5.06
   4   1  -6   17.65    3.61
  -4   1   6   17.59    3.68
   4  -1  -6   14.88    3.26
   4  -1  -6   14.66    3.20
   4   1  -6   20.01    3.76
  -4   1   6   14.01    3.32
   4  -1  -6   15.91    3.49
   4   1  -6   15.88    3.55
   4  -1  -6   14.46    2.69
  -4  -1   6   13.08    3.53
  -4   1   6   14.85    3.07
   4   1  -6   15.05    3.74
   4  -1  -6   15.78    2.91
   4  -1  -5   56.16    5.63
  -4   1   5   51.54    5.61
   4  -1  -5   51.20    5.60
   4  -1  -5   50.43    5.67
  -4   1   5   50.52    4.91
   4  -1  -5   60.67    4.94
   4   1  -5   46.10    5.48
   4   2 -15    7.49    5.07
   4   2 -15   -1.70    3.82
  -4  -2  15    5.68    4.37
  -4  -2  15    7.87    5.35
  -4   2  14   -2.41    4.67
   4  -2 -14    0.44    3.53
   4  -2 -14    9.03    5.55
   4   2 -14    7.76    4.51
   4   2 -14    7.14    4.89
  -4  -2  14    6.34    5.20
  -4  -2  14   13.10    7.10
  -4  -2  13   13.06    4.56
  -4   2  13    4.88    5.82
   4  -2 -13   12.04    5.05
   4  -2 -13   10.20    4.88
   4   2 -13   25.25    6.57
   4   2 -13    3.88    3.85
  -4  -2  13   12.07    5.35
  -4  -2  13   22.09    5.66
  -4   2  13   10.06    4.39
  -4  -2  12    6.48    3.51
   4   2 -12   -2.92    3.43
  -4   2  12    8.42    5.01
   4  -2 -12    6.01    4.11
   4  -2 -12    3.72    4.02
   4   2 -12    7.30    4.57
   4   2 -12    2.96    4.39
  -4  -2  12    5.24    4.54
  -4  -2  12   -3.11    4.08
  -4   2  12   -6.82    4.19
  -4  -2  11  201.73   14.61
   4   2 -11  197.32   14.27
  -4   2  11  188.83   14.68
   4  -2 -11  177.71   13.38
   4  -2 -11  192.67   15.10
   4   2 -11  212.77   15.66
   4   2 -11  197.14   15.16
  -4  -2  11  190.08   14.40
  -4  -2  11  190.86   14.84
  -4   2  11  162.76   12.49
  -4  -2  10  134.45   11.94
   4   2 -10  128.32   11.05
  -4   2  10  110.80   10.67
   4  -2 -10  114.11   10.25
   4   2 -10  118.39   11.17
   4  -2 -10  123.41   11.63
  -4   2  10  129.37   10.93
  -4   2  10  119.92   10.40
   4   2 -10  125.04   11.56
  -4  -2  10  122.94   11.18
   4  -2 -10  127.83   11.33
  -4  -2  10  126.62   11.58
   4  -2 -10   97.43    9.35
  -4   2  10  128.40   10.55
  -4  -2   9  124.60   11.27
   4   2  -9  127.18   10.63
  -4   2   9  130.87   11.31
   4  -2  -9  117.03    9.91
   4  -2  -9  111.68   10.81
  -4   2   9  125.88   10.22
   4   2  -9  128.76   11.21
  -4   2   9  136.65   10.98
   4   2  -9  130.79   11.30
  -4  -2   9  118.06   10.44
   4  -2  -9  127.13   11.03
   4  -2  -9  105.05    9.72
  -4   2   9  125.56   10.10
  -4  -2   8    5.02    3.28
  -4   2   8   10.50    3.79
   4   2  -8    6.60    3.00
   4  -2  -8    9.95    3.73
   4  -2  -8    2.19    2.47
  -4   2   8    3.24    3.41
   4  -2  -8    7.04    3.12
   4  -2  -8    4.69    3.25
   4   2  -8    7.65    3.35
  -4   2   8    6.50    3.30
   4   2  -8    8.34    3.39
  -4  -2   8    1.72    2.82
  -4   2   8    0.16    2.92
  -4   2   7    7.92    3.38
  -4  -2   7   10.26    3.98
  -4   2   7   10.02    3.75
   4   2  -7    9.68    3.68
   4  -2  -7   15.39    4.28
   4  -2  -7   12.12    3.65
  -4   2   7   13.13    4.16
   4  -2  -7   10.39    3.61
   4  -2  -7    8.11    3.08
   4   2  -7   10.78    3.83
   4   2  -7   14.76    3.98
  -4   2   7   15.86    4.34
  -4  -2   7   11.82    3.99
  -4  -2   6    0.23    2.26
  -4   2   6    2.11    2.19
   4   2  -6   -1.26    2.62
   4  -2  -6    1.49    2.55
   4  -2  -6    1.87    2.40
  -4   2   6    3.54    2.77
   4  -2  -6   -2.29    2.60
   4   2  -6    1.76    2.49
   4  -2  -6    1.11    2.18
   4   2  -6   -0.47    2.21
  -4   2   6    1.71    2.34
  -4  -2   6    2.62    2.71
   4   2  -5   20.04    4.13
  -4   2   5   26.34    4.74
   4  -2  -5   26.35    4.81
   4  -2  -5   23.20    4.41
  -4   2   5   27.54    4.70
   4  -2  -5   24.71    4.49
   4   2  -5   20.63    4.21
  -4   2   5   23.27    4.47
  -4   2   4   43.65    5.60
   4  -2  -4   43.60    5.66
  -4   2   4   45.29    5.99
  -4   2   4   39.29    5.52
   4  -2  -4   44.45    5.22
   4  -2  -4   46.51    5.85
   4  -2  -4   45.49    5.99
  -4  -3  13    3.39    4.49
   4   3 -13    9.81    5.48
   4   3 -13   -5.58    4.79
   4   3 -13   -0.46    4.41
  -4  -3  13    0.20    4.91
  -4  -3  13    1.46    4.37
  -4   3  12    6.77    3.55
   4  -3 -12    6.69    3.63
  -4  -3  12   11.09    5.42
   4   3 -12    9.37    6.01
  -4   3  12    8.49    4.63
   4  -3 -12    5.40    4.58
   4   3 -12    4.56    4.52
   4   3 -12    9.76    4.80
  -4  -3  12   -0.62    4.87
  -4  -3  12    3.65    4.21
  -4   3  11   49.07    7.95
   4  -3 -11   45.81    7.60
  -4  -3  11   52.25    8.86
   4  -3 -11   41.22    7.43
   4   3 -11   62.07    9.35
  -4   3  11   40.49    7.92
   4  -3 -11   52.63    8.77
  -4   3  11   51.32    8.39
   4   3 -11   63.25    9.26
   4   3 -11   67.09    9.72
  -4  -3  11   51.71    8.91
  -4  -3  11   60.93    9.96
  -4   3  10   29.93    6.24
  -4  -3  10   26.50    7.45
   4  -3 -10   28.37    6.64
   4  -3 -10   27.65    6.93
   4   3 -10   38.15    6.78
  -4   3  10   23.35    5.78
   4  -3 -10   31.71    7.28
  -4   3  10   32.37    6.83
   4   3 -10   33.66    7.10
   4   3 -10   33.78    7.03
  -4  -3  10   21.04    7.31
  -4  -3  10   38.03    8.02
   4   3  -9  327.20   19.42
  -4   3   9  313.46   19.19
   4  -3  -9  311.96   19.69
  -4   3   9  283.25   17.83
   4   3  -9  322.53   18.57
  -4   3   9  323.02   19.44
   4  -3  -9  307.70   19.83
  -4  -3   9  335.92   20.16
   4  -3  -9  303.51   19.48
   4   3  -8  127.11   12.22
  -4   3   8  129.41   12.26
   4  -3  -8  126.16   12.07
  -4   3   8  123.08   11.63
   4   3  -8  139.51   11.82
  -4   3   8  130.13   12.30
   4  -3  -8  123.15   12.33
   4  -3  -8  128.30   12.75
  -4  -3   7    6.02    4.23
  -4   3   7    9.51    4.52
   4   3  -7    4.09    2.86
   4  -3  -7   11.35    5.25
  -4   3   7    6.35    4.14
   4  -3  -7    0.54    3.14
   4  -3  -7   -0.66    3.97
  -4   3   7    7.22    4.27
   4   3  -7    1.90    3.99
  -4  -3   6   41.69    8.55
   4   3  -6   64.66    8.42
  -4   3   6   67.81    8.91
   4  -3  -6   38.04    8.16
  -4   3   6   66.25    9.00
   4  -3  -6   59.14    8.14
   4   3  -6   67.16    7.85
   4  -3  -6   59.41    8.20
   4   3  -6   39.23    8.29
  -4   3   6   72.62    9.33
   4  -3  -5   26.71    6.09
  -4   3   5   38.84    7.59
   4  -3  -5   18.83    6.27
  -4   3   5   31.32    6.49
   4  -3  -5   37.35    6.72
  -4   3   5   40.98    7.59
   4  -3  -4   16.08    4.73
  -4   3   4   11.86    4.20
   4  -3  -4    5.18    4.48
  -4   3   4    8.09    3.53
   4  -3  -4   17.39    4.45
  -4   3   4   15.94    4.24
   4  -3  -4   12.68    4.14
   4  -3  -3    6.22    8.91
  -4   3   3   -4.97    3.71
  -4   3   3   -0.46    5.68
   4  -3  -3    0.87    2.80
  -4   3   3   12.76    8.37
  -4   4   9   -7.17    5.47
   4  -4  -9    4.47    5.23
  -4   4   8    2.99    4.92
   4  -4  -8   -0.71    4.15
   4  -4  -8   -2.65    4.06
   4  -4  -7    3.49    4.66
  -4   4   7   -7.05    4.77
   4   4  -7   -3.30    3.76
  -4   4   7   -4.06    4.49
   4  -4  -7    4.17    4.25
   4  -4  -6    2.04    4.38
   4  -4  -6    2.45    4.68
  -4   4   6   11.46    5.12
  -4   4   6   -0.57    4.73
   4  -4  -5    1.69    4.66
  -4   4   5    7.55    4.76
   4  -4  -5   10.06    5.74
  -4   4   5    6.55    5.55
   4  -4  -4   -4.95    4.74
   4  -4  -4   -1.13    3.63
  -4   4   4    2.10    3.61
  -4   4   4   -8.32    5.96
   4  -4  -3    8.28    4.79
   4  -4  -3    6.01    5.80
  -4   4   3   19.75    6.55
  -4   4   3    8.08    6.73
   4  -4  -3   10.38    6.01
   5   0 -16    8.73    5.23
  -5   0  16    8.77    4.71
  -5   0  16    5.82    4.94
   5   0 -15  -15.52    7.09
   5   0 -15   -1.71    3.97
   5   0 -15    0.57    3.41
  -5   0  15   -4.51    3.72
  -5   0  15   -7.31    4.61
  -5   0  15    0.08    3.63
   5   0 -14    6.31    4.29
   5   0 -14   -4.42    3.81
   5   0 -14    3.46    2.97
  -5   0  14    2.71    3.96
  -5   0  14    4.72    3.89
  -5   0  14    1.17    3.78
   5   0 -13   -0.57    4.11
   5   0 -13    4.39    3.96
   5   0 -13   -4.17    3.05
  -5   0  13    7.31    3.47
  -5   0  13   -0.05    2.90
  -5   0  13   -4.36    4.51
   5   0 -12   25.52    5.99
   5   0 -12   22.96    5.62
   5   0 -12   29.55    6.19
  -5   0  12   26.58    5.82
  -5   0  12   34.73    6.57
  -5   0  12   19.93    5.78
   5   0 -11    3.10    2.85
   5   0 -11   -2.89    2.53
   5   0 -11   -1.20    3.02
  -5   0  11   -1.56    2.78
  -5   0  11    3.98    2.63
  -5   0  11   -0.50    3.70
   5   0 -10    9.72    3.10
  -5   0  10   13.83    3.48
   5   0 -10   10.83    3.34
   5   0 -10   14.48    3.81
   5   0 -10    8.71    3.78
  -5   0  10   14.25    3.98
  -5   0   9   -8.08    4.34
   5   0  -9   13.08    5.40
   5   0  -9   24.20    5.25
   5   0  -9    1.10    2.79
  -5   0   9   28.41    7.19
   5   0  -8    2.14    2.75
  -5   0   8    7.29    2.84
   5   0  -8    1.78    1.90
   5   0  -7   -0.48    2.26
  -5   0   7    1.73    1.97
   5   0  -7    2.54    2.50
  -5   1  16    7.99    8.01
   5  -1 -16   39.82    9.25
   5   1 -16   37.71    7.88
   5   1 -16   33.51    8.08
   5   1 -16   38.10    8.02
  -5  -1  16   36.20    7.65
  -5  -1  16   41.47    8.64
  -5   1  16   10.82    6.39
  -5  -1  16   38.23    7.64
  -5   1  15    1.25    4.20
   5  -1 -15    0.14    4.43
   5   1 -15   -5.84    4.83
   5  -1 -15    8.47    4.24
   5   1 -15   -0.34    3.83
   5   1 -15    2.14    4.12
  -5  -1  15    6.57    5.31
  -5  -1  15    2.70    3.70
  -5   1  15    4.56    5.53
  -5  -1  15    5.45    3.61
  -5   1  14    9.05    6.98
   5  -1 -14   41.50    8.01
   5   1 -14   37.79    7.24
   5  -1 -14   36.27    7.16
   5   1 -14   42.45    8.23
   5   1 -14   41.36    7.80
  -5  -1  14   50.83    8.30
  -5  -1  14   55.26    9.27
  -5   1  14   21.81    6.94
  -5  -1  14   43.49    7.52
   5   1 -13   78.55    9.39
   5  -1 -13   63.05    9.65
   5  -1 -13   63.83    9.43
   5   1 -13   80.90   10.69
   5   1 -13   71.74    9.55
  -5  -1  13   73.91    9.79
  -5  -1  13   72.91    9.51
  -5   1  13   66.74    9.87
  -5  -1  13   77.39    9.65
   5  -1 -12  104.93   10.92
   5   1 -12  113.46   10.85
   5  -1 -12  105.97   10.72
   5   1 -12  106.86   11.59
   5   1 -12  119.28   11.49
  -5  -1  12  105.30   11.03
  -5  -1  12  118.22   11.70
  -5   1  12  101.93   11.25
  -5  -1  12  101.93   10.80
  -5   1  11    5.97    4.81
   5  -1 -11   10.99    4.43
   5   1 -11   10.80    4.40
   5  -1 -11   15.00    4.68
   5   1 -11    9.47    4.16
   5   1 -11   10.19    4.04
  -5  -1  11   11.12    4.42
  -5   1  11    9.22    4.58
  -5  -1  11   11.46    3.80
  -5   1  10    4.28    3.36
   5  -1 -10   -1.08    2.87
  -5   1  10    7.96    3.91
   5   1 -10    7.99    3.92
   5  -1 -10    6.99    3.95
   5   1 -10    3.92    3.61
   5   1 -10    1.75    3.05
  -5  -1  10    8.03    4.23
   5   1  -9    0.97    2.08
   5  -1  -9   -1.54    2.45
   5   1  -9   -1.65    2.46
  -5   1   9    0.64    2.65
   5  -1  -9   -4.13    3.23
   5   1  -9   -2.65    2.85
   5   1  -9    0.85    2.57
  -5  -1   9    2.19    2.53
   5   1  -8    3.52    2.01
   5  -1  -8   -0.26    2.15
   5   1  -8    3.44    2.34
  -5   1   8    5.05    2.83
   5  -1  -8    6.64    3.44
   5   1  -8    4.16    2.52
   5   1  -8    9.08    3.53
  -5  -1   8    1.08    3.17
   5  -1  -7   30.24    4.56
   5  -1  -7   31.30    5.47
  -5   1   7   25.60    4.46
   5  -1  -7   28.29    4.77
  -5   1   7   31.25    4.36
  -5   2  15    0.82    4.32
   5  -2 -15    4.70    5.19
   5  -2 -15   -0.32    4.29
  -5   2  15    5.35    4.69
  -5   2  14    0.98    5.11
   5  -2 -14    3.78    4.49
   5  -2 -14   -4.23    4.51
   5   2 -14    8.39    5.04
   5   2 -14   -7.62    5.91
  -5  -2  14   14.97    5.70
  -5  -2  14   -1.54    3.76
  -5   2  14    5.35    4.22
  -5   2  13    3.58    6.84
   5  -2 -13   27.50    6.62
   5  -2 -13   29.75    7.30
   5   2 -13    1.77    3.60
   5   2 -13    7.25    4.61
  -5  -2  13    2.68    3.54
  -5  -2  13   13.80    5.89
  -5   2  13    7.51    5.23
  -5  -2  12    3.11    3.73
  -5   2  12   -3.56    3.49
   5  -2 -12    0.59    3.28
   5  -2 -12    0.10    3.54
   5   2 -12    2.08    3.60
   5   2 -12   -0.36    3.50
  -5  -2  12    3.65    3.57
  -5  -2  12    3.54    3.62
  -5   2  12   -0.78    4.02
  -5  -2  11  234.29   16.39
   5   2 -11  210.11   14.64
  -5   2  11  188.61   14.67
   5  -2 -11  187.26   14.18
   5  -2 -11  204.93   15.90
   5   2 -11  210.33   15.37
   5   2 -11  229.56   16.34
  -5  -2  11  208.18   15.70
  -5  -2  11  227.51   16.46
  -5   2  11  202.79   14.52
  -5  -2  10   22.06    5.68
   5   2 -10   16.34    4.62
  -5   2  10   20.77    5.57
   5  -2 -10   19.52    4.62
   5  -2 -10   18.86    5.73
   5   2 -10   19.81    5.27
   5   2 -10   20.44    5.28
  -5  -2  10   18.98    5.47
  -5   2  10   15.82    4.42
  -5  -2   9   17.16    4.52
   5   2  -9   28.66    5.63
   5  -2  -9   23.88    3.17
  -5   2   9   29.71    6.16
  -5   2   9   28.69    5.98
   5  -2  -9   29.01    5.88
   5  -2  -9   18.91    4.85
   5  -2  -9   23.75    5.49
   5   2  -9   24.04    5.51
   5   2  -9   21.39    5.25
  -5   2   9   24.09    4.50
  -5  -2   9   25.08    5.79
  -5   2   9   30.03    6.05
   5   2  -8   12.77    3.82
   5  -2  -8    7.16    3.21
  -5   2   8   11.58    3.61
  -5   2   8   12.70    4.37
   5  -2  -8    6.44    3.61
   5  -2  -8   13.50    4.29
   5   2  -8   12.41    4.28
  -5   2   8    6.61    2.73
   5  -2  -8   10.65    3.53
   5  -2  -7   14.58    4.41
  -5   2   7   16.78    4.48
  -5   2   7   17.11    4.98
   5  -2  -7   10.09    4.32
   5  -2  -7   11.16    3.69
  -5   2   7   11.03    3.81
   5  -2  -6    3.58    2.94
  -5   2   6    3.59    2.85
   5  -2  -6    0.88    2.68
  -5   2   6    8.08    3.08
   5   3 -12  233.34   18.58
  -5   3  12  187.08   16.24
   5  -3 -12  197.57   17.64
   5   3 -12  218.14   17.63
   5   3 -12  206.14   17.44
  -5  -3  12  237.61   19.07
  -5  -3  12  189.59   16.97
  -5  -3  11    3.26    3.76
   5  -3 -11    6.52    5.47
  -5   3  11    3.93    3.93
   5   3 -11   10.24    4.95
  -5   3  11   -2.74    4.01
   5  -3 -11   -6.67    5.18
  -5   3  11    3.67    4.07
   5   3 -11   11.68    4.85
   5   3 -11    4.90    4.36
  -5  -3  11    5.72    4.24
  -5  -3  11    1.12    4.21
  -5  -3  10   -8.23    4.90
   5  -3 -10   -1.84    4.82
  -5   3  10    9.22    5.03
   5   3 -10    0.18    3.88
  -5   3  10    0.82    4.07
   5  -3 -10   -4.39    4.24
  -5   3  10    2.47    4.00
   5   3 -10    4.28    4.29
  -5  -3  10   10.06    5.38
   5  -3 -10   -1.98    3.42
  -5  -3   9    1.61    5.38
   5   3  -9   62.84    9.50
   5  -3  -9    2.20    3.79
  -5   3   9    0.74    3.10
   5  -3  -9    4.57    3.96
  -5   3   9   -9.96    4.60
   5  -3  -9   -1.88    3.79
  -5   3   9   -3.92    4.73
   5  -3  -8    5.93    4.09
  -5   3   8   10.08    4.46
  -5   3   8    1.96    4.38
   5  -3  -8    0.87    3.69
   5  -3  -8    3.01    3.41
  -5   3   8    4.83    3.51
   5  -3  -7    8.42    4.39
   5  -3  -7   10.65    5.11
  -5   3   7    4.58    3.55
  -5   3   7    4.95    3.60
   5  -3  -7    5.24    3.54
  -5   3   7   16.64    4.91
   5  -3  -6   10.49    3.63
   5  -3  -6   10.42    4.73
  -5   3   6   17.53    5.43
  -5   3   6   14.87    5.13
   5  -3  -6   12.43    4.84
  -5   3   6   20.63    5.76
  -5   4   8   23.93    6.83
   5  -4  -8   22.12    7.27
  -5   4   7    6.13    6.49
  -5   4   6    3.62    3.87
  -5   4   6    9.26    5.51
   6   0 -16  106.41   13.03
   6   0 -15   -1.86    4.85
  -6   0  15   -0.80    4.51
   6   0 -14  143.84   13.89
   6   0 -14  151.58   13.61
   6   0 -14  158.71   14.27
  -6   0  14  142.60   13.04
  -6   0  14  147.61   13.55
   6   0 -13    0.80    3.44
   6   0 -13   -2.77    3.58
   6   0 -13    0.43    3.07
  -6   0  13   -5.85    3.90
  -6   0  13   -0.81    3.01
  -6   0  13    2.89    4.22
  -6   0  12    5.75    4.77
   6   0 -12    8.99    4.56
   6   0 -12   10.79    4.56
   6   0 -12    8.67    4.20
  -6   0  12   10.46    4.53
   6   0 -11    5.57    3.99
   6   0 -11   -3.49    2.94
   6   0 -10   35.74    6.95
  -6   0  10   18.80    6.59
   6   0 -10   35.71    6.52
   6   0  -9   -1.97    3.62
  -6   0   9   -3.78    2.95
   6   0  -9   -0.33    2.61
   6   1 -16   31.06    8.12
  -6  -1  16   12.50    6.17
  -6   1  15   -0.84    4.03
   6  -1 -15   -2.48    5.90
   6   1 -15   12.84    5.77
   6  -1 -15  -11.16    6.76
   6   1 -15   14.01    5.58
   6   1 -15   -4.35    4.30
  -6  -1  15    0.57    4.51
  -6  -1  15   -5.69    4.36
  -6   1  15    2.54    5.61
  -6  -1  15   -2.40    4.99
   6   1 -14   61.96    9.59
   6   1 -14   75.55   10.81
   6   1 -14   67.60    9.87
  -6  -1  14   62.81   10.13
  -6  -1  14   63.36   10.17
  -6  -1  14   65.60    9.79
  -6   1  13    9.43    7.45
   6  -1 -13   42.19    8.04
   6   1 -13   42.29    7.78
   6  -1 -13   38.40    7.35
   6   1 -13   44.79    7.96
   6   1 -13   41.25    7.80
  -6  -1  13   40.60    7.71
  -6  -1  13   48.08    8.50
  -6   1  13   24.63    8.40
  -6  -1  13   49.11    8.55
  -6   1  12    0.17    4.07
   6  -1 -12   -1.90    4.18
   6   1 -12    7.16    4.18
   6  -1 -12    4.63    3.64
   6   1 -12    3.57    4.52
   6   1 -12   -2.22    2.89
  -6  -1  12    0.07    3.24
  -6   1  12    0.76    3.51
  -6  -1  12   -2.97    3.32
  -6   1  11   16.29    5.05
  -6   1  11    1.40    4.58
   6  -1 -11   16.67    5.35
   6   1 -11   15.10    4.69
   6  -1 -11   20.36    5.25
   6   1 -11   19.90    5.93
   6   1 -11   17.70    5.06
  -6  -1  11   21.12    5.98
   6  -1 -10   15.01    5.18
  -6   1  10    6.00    5.27
   6  -1 -10    5.70    3.05
   6   1 -10   16.81    5.04
   6  -1  -9   -1.49    3.70
  -6   1   9   -1.47    2.76
   6  -2 -14  132.60   13.53
   6  -2 -14  142.35   15.61
  -6   2  14  126.61   13.75
  -6   2  13   -0.48    4.09
   6  -2 -13    2.19    4.77
   6  -2 -13    0.96    4.02
   6   2 -13    4.57    4.67
   6   2 -13   -1.55    4.26
  -6  -2  13   -1.16    4.38
  -6  -2  13   -5.68    4.95
  -6   2  13    2.41    4.63
  -6   2  12    3.56    5.08
   6  -2 -12    2.60    4.30
   6  -2 -12    3.43    4.27
   6   2 -12    5.53    4.76
   6   2 -12    6.70    4.52
  -6  -2  12    3.82    3.74
  -6  -2  12   11.22    5.41
  -6   2  12    0.00    3.68
  -6   2  11   15.59    6.00
   6  -2 -11    6.49    4.05
   6  -2 -11    3.91    3.63
   6   2 -11    3.15    3.80
  -6   2  11    6.67    4.12
  -6   2  10    0.60    3.24
  -6   2  10    3.46    3.52
   6  -2 -10    1.36    4.81
   6  -2 -10   -6.26    4.31
  -6   2   9   35.25    6.30
   6  -2  -9   33.76    6.39
   6  -3 -10   -5.61    5.14
  -6   3  10    0.46    5.11
   6  -3 -10    3.13    4.95
  -6   3  10    0.62    3.57
   6  -3  -9    0.48    4.14
  -6   3   9    7.18    4.69
   6  -3  -9   -0.04    4.29
  -6   3   9   -0.29    3.61
   7   0 -15   -0.79    5.20
   7   0 -14   25.55    6.94
  -7   0  14    3.93    5.96
  -7   0  13   -2.63    5.76
   7   0 -13    4.21    3.95
  -7   0  13    5.33    4.29
   7   0 -12   13.11    5.07
   7   1 -15   -1.14    4.53
  -7  -1  15   -2.57    5.57
  -7   1  14    1.95    5.31
   7  -1 -14    4.50    5.37
   7  -1 -14    2.58    4.56
   7   1 -14   -2.98    5.38
  -7  -1  14    0.59    4.11
  -7   1  14    1.95    4.32
  -7  -1  14   -6.52    5.60
  -7   1  13   -1.45    5.00
   7  -1 -13   -4.34    4.80
   7   1 -13   -2.99    3.70
  -7   1  13   -2.09    4.48
  -7   1  12   14.10    5.73
  -7   1  12    3.62    5.59
   7  -1 -12   15.15    5.77
  -7   2  13    3.58    6.41
   7  -2 -13   19.64    6.60
  -7   2  13    9.06    4.01
  -7   2  12    1.66    3.32
   7  -2 -12    2.63    4.60
  -7   2  12   -0.95    3.90
   0   0   0    0.00    0.00


TITL dipropyl_ether_phase_alpha_5_30GPa in P2(1)/c
REM P2(1)/c (#14 in standard setting)
CELL 0.71073   9.098963   3.946549  14.648892  90.0000  98.3222  90.0000
ZERR    4.00   0.011770   0.000271   0.008275   0.0000   0.0962   0.0000
LATT  1
SYMM -x, y+1/2,-z+1/2
SFAC C H O
UNIT 24.00 56.00 4.00
REM  CrysAlisPro recorded range (K): Min=297.9; max=297.9; aver:297.9
TEMP 25
TREF
HKLF 4
END
_computing_structure_solution     'SHELXT 2018/2 (Sheldrick, 2018)'
;
_shelx_hkl_checksum              63913
_olex2_submission_special_instructions 'No special instructions were received'
loop_
_space_group_symop_operation_xyz
'x, y, z'
'-x, y+1/2, -z+1/2'
'-x, -y, -z'
'x, -y-1/2, z-1/2'
loop_
_atom_site_label
_atom_site_type_symbol
_atom_site_fract_x
_atom_site_fract_y
_atom_site_fract_z
_atom_site_U_iso_or_equiv
_atom_site_adp_type
_atom_site_occupancy
_atom_site_site_symmetry_order
_atom_site_calc_flag
_atom_site_refinement_flags_posn
_atom_site_refinement_flags_adp
_atom_site_refinement_flags_occupancy
_atom_site_disorder_assembly
_atom_site_disorder_group
O1 O 0.4627(19) 0.8650(7) 0.1325(8) 0.050(9) Uani 1 1 d . . . . .
C1 C 0.371(3) 0.7166(10) 0.0531(12) 0.023(12) Uani 1 1 d . U . . .
H12 H 0.409912 0.780801 -0.002578 0.028 Uiso 1 1 calc R U . . .
H11 H 0.375152 0.471618 0.058045 0.028 Uiso 1 1 calc R U . . .
C2 C 0.217(2) 0.8244(10) 0.0454(9) 0.049(11) Uani 1 1 d . . . . .
H22 H 0.213116 1.069016 0.051235 0.059 Uiso 1 1 calc R U . . .
H21 H 0.172236 0.726698 0.095760 0.059 Uiso 1 1 calc R U . . .
C3 C 0.127(2) 0.7196(10) -0.0455(8) 0.046(10) Uani 1 1 d . . . . .
H33 H 0.029615 0.820062 -0.050986 0.069 Uiso 1 1 calc R U . . .
H31 H 0.117300 0.477280 -0.047607 0.069 Uiso 1 1 calc R U . . .
H32 H 0.175853 0.795027 -0.095538 0.069 Uiso 1 1 calc R U . . .
C4 C 0.605(3) 0.7270(11) 0.1482(13) 0.033(14) Uani 1 1 d . . . . .
H41 H 0.658536 0.789594 0.097857 0.040 Uiso 1 1 calc R U . . .
H42 H 0.598453 0.481867 0.149304 0.040 Uiso 1 1 calc R U . . .
C5 C 0.693(2) 0.8507(9) 0.2395(8) 0.044(11) Uani 1 1 d . . . . .
H51 H 0.691123 1.096390 0.240938 0.052 Uiso 1 1 calc R U . . .
H52 H 0.644999 0.768628 0.290271 0.052 Uiso 1 1 calc R U . . .
C6 C 0.846(2) 0.7360(12) 0.2521(9) 0.066(10) Uani 1 1 d . . . . .
H63 H 0.896718 0.821768 0.309438 0.100 Uiso 1 1 calc R U . . .
H61 H 0.893893 0.817475 0.202188 0.100 Uiso 1 1 calc R U . . .
H62 H 0.848248 0.492831 0.253003 0.100 Uiso 1 1 calc R U . . .
loop_
_atom_site_aniso_label
_atom_site_aniso_U_11
_atom_site_aniso_U_22
_atom_site_aniso_U_33
_atom_site_aniso_U_23
_atom_site_aniso_U_13
_atom_site_aniso_U_12
O1 0.07(2) 0.0270(14) 0.056(9) -0.002(3) 0.034(14) 0.006(5)
C1 0.01(3) 0.0240(18) 0.037(17) 0.000(6) 0.00(2) 0.001(10)
C2 0.07(3) 0.0260(18) 0.059(12) 0.001(3) 0.042(18) 0.005(5)
C3 0.07(3) 0.0302(19) 0.039(11) -0.002(4) 0.021(16) -0.004(6)
C4 0.02(4) 0.0253(19) 0.055(17) 0.006(6) 0.02(2) 0.007(10)
C5 0.08(3) 0.0245(18) 0.028(10) 0.004(3) 0.015(17) 0.006(5)
C6 0.12(3) 0.030(2) 0.064(12) 0.005(4) 0.053(17) 0.008(6)
loop_
_atom_type_symbol
_atom_type_description
_atom_type_scat_dispersion_real
_atom_type_scat_dispersion_imag
_atom_type_scat_source
C C 0.0033 0.0016 'International Tables Vol C Tables 4.2.6.8 and 6.1.1.4'
H H 0.0000 0.0000 'International Tables Vol C Tables 4.2.6.8 and 6.1.1.4'
O O 0.0106 0.0060 'International Tables Vol C Tables 4.2.6.8 and 6.1.1.4'
loop_
_geom_angle_atom_site_label_1
_geom_angle_atom_site_label_2
_geom_angle_atom_site_label_3
_geom_angle
_geom_angle_site_symmetry_1
_geom_angle_site_symmetry_3
_geom_angle_publ_flag
C4 O1 C1 112.9(6) . . ?
O1 C1 H12 109.1 . . ?
O1 C1 H11 109.1 . . ?
H12 C1 H11 107.9 . . ?
C2 C1 O1 112.4(5) . . ?
C2 C1 H12 109.1 . . ?
C2 C1 H11 109.1 . . ?
C1 C2 H22 109.1 . . ?
C1 C2 H21 109.1 . . ?
C1 C2 C3 112.3(6) . . ?
H22 C2 H21 107.9 . . ?
C3 C2 H22 109.1 . . ?
C3 C2 H21 109.1 . . ?
C2 C3 H33 109.5 . . ?
C2 C3 H31 109.5 . . ?
C2 C3 H32 109.5 . . ?
H33 C3 H31 109.5 . . ?
H33 C3 H32 109.5 . . ?
H31 C3 H32 109.5 . . ?
O1 C4 H41 109.2 . . ?
O1 C4 H42 109.2 . . ?
O1 C4 C5 111.8(6) . . ?
H41 C4 H42 107.9 . . ?
C5 C4 H41 109.2 . . ?
C5 C4 H42 109.2 . . ?
C4 C5 H51 109.2 . . ?
C4 C5 H52 109.2 . . ?
H51 C5 H52 107.9 . . ?
C6 C5 C4 112.2(6) . . ?
C6 C5 H51 109.2 . . ?
C6 C5 H52 109.2 . . ?
C5 C6 H63 109.5 . . ?
C5 C6 H61 109.5 . . ?
C5 C6 H62 109.5 . . ?
H63 C6 H61 109.5 . . ?
H63 C6 H62 109.5 . . ?
H61 C6 H62 109.5 . . ?
loop_
_geom_bond_atom_site_label_1
_geom_bond_atom_site_label_2
_geom_bond_distance
_geom_bond_site_symmetry_2
_geom_bond_publ_flag
O1 C1 1.46(4) . ?
O1 C4 1.40(4) . ?
C1 H12 0.9700 . ?
C1 H11 0.9700 . ?
C1 C2 1.45(4) . ?
C2 H22 0.9700 . ?
C2 H21 0.9700 . ?
C2 C3 1.52(3) . ?
C3 H33 0.9600 . ?
C3 H31 0.9600 . ?
C3 H32 0.9600 . ?
C4 H41 0.9700 . ?
C4 H42 0.9700 . ?
C4 C5 1.53(4) . ?
C5 H51 0.9700 . ?
C5 H52 0.9700 . ?
C5 C6 1.45(3) . ?
C6 H63 0.9600 . ?
C6 H61 0.9600 . ?
C6 H62 0.9600 . ?
loop_
_geom_torsion_atom_site_label_1
_geom_torsion_atom_site_label_2
_geom_torsion_atom_site_label_3
_geom_torsion_atom_site_label_4
_geom_torsion
_geom_torsion_site_symmetry_1
_geom_torsion_site_symmetry_2
_geom_torsion_site_symmetry_3
_geom_torsion_site_symmetry_4
_geom_torsion_publ_flag
O1 C1 C2 C3 170.2(4) . . . . ?
O1 C4 C5 C6 -174.3(4) . . . . ?
C1 O1 C4 C5 -172.0(4) . . . . ?
C4 O1 C1 C2 171.4(4) . . . . ?
