#------------------------------------------------------------------------------
#$Date: 2024-02-05 14:09:55 +0200 (Mon, 05 Feb 2024) $
#$Revision: 289697 $
#$URL: file:///home/coder/svn-repositories/cod/cif/1/57/04/1570435.cif $
#------------------------------------------------------------------------------
#
# This file is available in the Crystallography Open Database (COD),
# http://www.crystallography.net/
#
# All data on this site have been placed in the public domain by the
# contributors.
#
data_1570435
loop_
_publ_author_name
'Sacharczuk, Natalia'
'Olejniczak, Anna'
'Bujak, Maciej'
'Dziubek, Kamil Filip'
'Katrusiak, Andrzej'
'Podsiad&#x142;o, Marcin'
_publ_section_title
;
 Conformation-aggregation interplay in the simplest aliphatic ethers
 probed under high pressure.
;
_journal_issue                   'Pt 1'
_journal_name_full               IUCrJ
_journal_page_first              57
_journal_page_last               61
_journal_paper_doi               10.1107/S2052252523009995
_journal_volume                  11
_journal_year                    2024
_chemical_formula_moiety         'C2 H6 O'
_chemical_formula_sum            'C2 H6 O'
_chemical_formula_weight         46.07
_chemical_name_systematic        'dimethyl ether'
_space_group_crystal_system      monoclinic
_space_group_IT_number           14
_space_group_name_Hall           '-P 2ybc'
_space_group_name_H-M_alt        'P 1 21/c 1'
_atom_sites_solution_hydrogens   geom
_atom_sites_solution_primary     direct
_audit_creation_method
;
Olex2 1.5
(compiled 2022.04.07 svn.rca3783a0 for OlexSys, GUI svn.r6498)
;
_cell_angle_alpha                90
_cell_angle_beta                 103.848(8)
_cell_angle_gamma                90
_cell_formula_units_Z            4
_cell_length_a                   5.5073(4)
_cell_length_b                   6.493(5)
_cell_length_c                   6.8431(8)
_cell_measurement_reflns_used    560
_cell_measurement_temperature    295(2)
_cell_measurement_theta_max      25.4650
_cell_measurement_theta_min      6.1040
_cell_volume                     237.59(19)
_computing_cell_refinement       'CrysAlisPro 1.171.42.49 (Rigaku OD, 2022)'
_computing_data_collection       'CrysAlisPro 1.171.42.49 (Rigaku OD, 2022)'
_computing_data_reduction        'CrysAlisPro 1.171.42.49 (Rigaku OD, 2022)'
_computing_molecular_graphics    'Olex2 1.5 (Dolomanov et al., 2009)'
_computing_publication_material  'Olex2 1.5 (Dolomanov et al., 2009)'
_computing_structure_refinement  'SHELXL 2018/3 (Sheldrick, 2015)'
_computing_structure_solution    'SHELXS  (Sheldrick, 2008)'
_diffrn_ambient_environment      'diamond-anvil cell'
_diffrn_ambient_pressure         4300000
_diffrn_ambient_temperature      295(2)
_diffrn_measured_fraction_theta_full 0.293
_diffrn_measured_fraction_theta_max 0.270
_diffrn_measurement_device_type  'KUMA KM4-CCD, Eos'
_diffrn_measurement_method       '\f- and \w-scans'
_diffrn_radiation_type           MoK\a
_diffrn_radiation_wavelength     0.71073
_diffrn_reflns_av_R_equivalents  0.0295
_diffrn_reflns_av_unetI/netI     0.0207
_diffrn_reflns_Laue_measured_fraction_full 0.293
_diffrn_reflns_Laue_measured_fraction_max 0.270
_diffrn_reflns_limit_h_max       6
_diffrn_reflns_limit_h_min       -6
_diffrn_reflns_limit_k_max       3
_diffrn_reflns_limit_k_min       -3
_diffrn_reflns_limit_l_max       7
_diffrn_reflns_limit_l_min       -7
_diffrn_reflns_number            721
_diffrn_reflns_point_group_measured_fraction_full 0.293
_diffrn_reflns_point_group_measured_fraction_max 0.270
_diffrn_reflns_theta_full        25.242
_diffrn_reflns_theta_max         26.122
_diffrn_reflns_theta_min         6.141
_exptl_absorpt_coefficient_mu    0.100
_exptl_absorpt_correction_T_max  1.00000
_exptl_absorpt_correction_T_min  0.03118
_exptl_absorpt_correction_type   multi-scan
_exptl_absorpt_process_details
;
CrysAlisPro 1.171.42.49 (Rigaku Oxford Diffraction, 2022)
Empirical absorption correction using spherical harmonics,
implemented in SCALE3 ABSPACK scaling algorithm.
;
_exptl_crystal_colour            colourless
_exptl_crystal_density_diffrn    1.288
_exptl_crystal_description       disc
_exptl_crystal_F_000             104
_exptl_crystal_size_max          0.38
_exptl_crystal_size_mid          0.38
_exptl_crystal_size_min          0.23
_refine_diff_density_max         0.139
_refine_diff_density_min         -0.109
_refine_diff_density_rms         0.035
_refine_ls_extinction_coef       1.1(3)
_refine_ls_extinction_expression Fc^*^=kFc[1+0.001xFc^2^\l^3^/sin(2\q)]^-1/4^
_refine_ls_extinction_method     'SHELXL-2018/3 (Sheldrick 2018)'
_refine_ls_goodness_of_fit_ref   1.181
_refine_ls_hydrogen_treatment    constr
_refine_ls_matrix_type           full
_refine_ls_number_parameters     31
_refine_ls_number_reflns         129
_refine_ls_number_restraints     0
_refine_ls_restrained_S_all      1.181
_refine_ls_R_factor_all          0.0566
_refine_ls_R_factor_gt           0.0525
_refine_ls_shift/su_max          0.000
_refine_ls_shift/su_mean         0.000
_refine_ls_structure_factor_coef Fsqd
_refine_ls_weighting_details
'w=1/[\s^2^(Fo^2^)+(0.1045P)^2^+0.0355P] where P=(Fo^2^+2Fc^2^)/3'
_refine_ls_weighting_scheme      calc
_refine_ls_wR_factor_gt          0.1326
_refine_ls_wR_factor_ref         0.1399
_reflns_Friedel_coverage         0.000
_reflns_number_gt                118
_reflns_number_total             129
_reflns_threshold_expression     'I > 2\s(I)'
_cod_data_source_file            lq5055.cif
_cod_data_source_block           dimethyl_ether_phase_beta_4_30GPa
_cod_depositor_comments
'Adding full bibliography for 1570433--1570452.cif.'
_cod_original_cell_volume        237.58(19)
_cod_database_code               1570435
_shelx_shelxl_version_number     2018/3
_shelx_space_group_comment
;
The symmetry employed for this shelxl refinement is uniquely defined
by the following loop, which should always be used as a source of
symmetry information in preference to the above space-group names.
They are only intended as comments.
;
_exptl_absorpt_special_details
;
Data were collected at room temperature (295(2) K) and pressure of 4.30(2) GPa
(4300000 kPa).
;
_olex2_refinement_description
;
1. Fixed Uiso
 At 1.5 times of:
  All C(H,H,H) groups
2.a Idealised Me refined as rotating group:
 C1(H11,H12,H13), C2(H22,H23,H21)
;
_shelx_res_file
;
TITL 3edm in P21/c #14
    3edm.res
    created by SHELXL-2018/3 at 13:48:57 on 02-Jan-2023
REM reset to P21/c #14
CELL 0.71073 5.507282 6.492743 6.843054 90 103.8475 90
ZERR 4 0.000403 0.005124 0.000784 0 0.008 0
LATT 1
SYMM -X,0.5+Y,0.5-Z
SFAC C H O
UNIT 8 24 4

L.S. 50
PLAN  10
CONF
BOND
fmap 2 53
MORE -1
BOND $H
ACTA
REM <olex2.extras>
REM <HklSrc "%.\\3edm.hkl">
REM </olex2.extras>

WGHT    0.104500    0.035500
EXTI    1.097955
FVAR      36.89880
O1    3    0.727214    0.339124    0.184765    11.00000    0.02573    0.00760 =
         0.03807    0.00066    0.00695    0.00039
C1    1    0.907658    0.175972    0.231338    11.00000    0.02650    0.03050 =
         0.03656    0.00571    0.01041    0.00560
AFIX 137
H11   2    0.908494    0.100137    0.111070    11.00000   -1.50000
H12   2    0.864582    0.085386    0.328685    11.00000   -1.50000
H13   2    1.070601    0.233258    0.285415    11.00000   -1.50000
AFIX   0
C2    1    0.492739    0.252871    0.085362    11.00000    0.02705    0.00780 =
         0.02628   -0.00118    0.00582    0.00326
AFIX 137
H22   2    0.508326    0.185891   -0.036109    11.00000   -1.50000
H23   2    0.369889    0.360298    0.052970    11.00000   -1.50000
H21   2    0.441758    0.154211    0.172140    11.00000   -1.50000
AFIX   0
HKLF 4




REM  3edm in P21/c #14
REM wR2 = 0.1399, GooF = S = 1.181, Restrained GooF = 1.181 for all data
REM R1 = 0.0525 for 118 Fo > 4sig(Fo) and 0.0566 for all 129 data
REM 31 parameters refined using 0 restraints

END

WGHT      0.1046      0.0345

REM Highest difference peak  0.139,  deepest hole -0.109,  1-sigma level  0.035
Q1    1   0.2443  0.1515  0.1707  11.00000  0.05    0.14
Q2    1   0.8931  0.1902  0.4576  11.00000  0.05    0.09
Q3    1   1.0063  0.3618  0.2561  11.00000  0.05    0.09
Q4    1   0.3838  0.2209 -0.0981  11.00000  0.05    0.08
Q5    1   0.5616  0.4372  0.2538  11.00000  0.05    0.08
Q6    1   0.8349  0.1877  0.2616  11.00000  0.05    0.08
Q7    1   0.3031  0.4360  0.1886  11.00000  0.05    0.08
Q8    1   0.5131  0.2252 -0.1841  11.00000  0.05    0.08
Q9    1   1.0156  0.0796  0.1507  11.00000  0.05    0.08
Q10   1   0.6198  0.1779  0.1888  11.00000  0.05    0.07
;
_shelx_res_checksum              29524
_shelx_hkl_file
;
   0   0  -2 615258. 7970.30   4
   0   0   2 610332. 9872.61   3
   0   0   3-120.660 390.253   1
   0   0  -3-218.386 300.858   2
   0   0   3-456.342 374.460   8
   0  -1   3 55488.5 1786.79   9
   0   1  -3 49312.0 1980.01   4
   0  -1   3 57068.9 2154.87   1
   0  -1   3 55906.2 2193.16   3
   0   1  -3 57204.2 2139.89   5
   0  -1   3 57090.8 1825.67   6
   0   1  -3 61000.0 2232.98   2
   0   1  -3 56677.5 1756.20   7
   0  -1   3 55009.8 2152.47   8
   0  -1   4 55856.3 2440.08   1
   0   1  -4 59473.7 2480.64   5
   0   1  -4 61767.7 2557.94   2
   0   1  -4 51560.6 2247.58   4
   0  -1   4 56957.9 2545.88   3
   0  -1   4 59260.7 2136.73   9
   0  -1   4 58029.8 2550.65   8
   0   1  -4 58877.2 2120.03   7
   0  -1   4 60521.7 2259.01   6
   0   1  -4 58592.3 2173.76  12
   0   1  -5 10568.6 1333.54   5
   0  -1   5 11184.9 1488.06   8
   0   1  -5 10077.1 1341.56   2
   0  -1   5 10509.1 1463.04   3
   0   1  -5 10257.2 1317.11   4
   0  -1   5 9489.24 1301.12   1
   0  -1   6 29841.8 1940.66   1
   0  -1   6 29662.7 2483.13   8
   0  -2   3 13303.6 1167.40   1
   0   2  -3 14099.1 1140.87   5
   0  -2   3 17038.4 1350.56   3
   0  -2   3 16348.5 1075.40   6
   0  -2   3 16054.4 1322.54   8
   0   2  -3 15600.4 1210.92   4
   0   2  -3 16638.2 1295.15   2
   0  -2   4-8.15859 181.683   3
   0  -2   4-176.364 242.741   1
   0   2  -4-1.67644 120.911   4
   0   2  -4-13.2917 53.0214   2
   0   2  -4 80.9252 80.3685   5
   0   2  -4 258.054 186.661  12
   0  -2   4 127.864 100.054   6
   0  -2   4 79.4220 78.7539   9
   0  -2   4-19.4541 135.378   8
   0   2  -5 26463.8 1914.33   4
   0  -2   5 28354.1 2012.56   1
   0   2  -5 25218.1 1904.77   2
   0  -2   5 27228.7 1968.98   3
   0   2  -5 26369.3 1941.39   5
   0  -2   5 26697.4 1970.34   8
   0  -2   6 29268.4 2370.83   3
   0   2  -6 25307.0 2095.88   5
   0   2  -6 27732.4 2234.40   2
   0  -2   6 29558.4 2355.37   1
   0  -2   6 26584.7 2277.12   8
   0   2  -6 22469.1 1945.12   4
   0   2  -7 29711.1 3160.45   2
   0   2  -7 28404.2 3084.11   5
   0  -2   7 22316.5 2950.08   8
   0  -2   7 23573.2 3376.38   3
   0   2  -7 28212.8 3000.88   4
  -1   0   3-72.0854 196.649   9
  -1   0   3 29.9451 255.772   1
  -1   0   3-23.8678 99.7992   8
   1   0  -3 383.197 320.965   2
   1   0  -3 22.3751 95.5959  12
   1   0  -3 47.5409 185.981   5
  -1   0   3 72.4440 10.7084  16
  -1   0   2 999999. 8683.41  15
  -1   0  -1 101.522 49.8451  10
   1   0   1 176.725 112.027   6
  -1   0  -1 164.265 75.5216   2
   1   0   1 127.486 89.1938   3
   1   0   1 178.719 110.772   1
  -1   0  -1 120.440 77.9534   7
   1   0   1 160.593 90.9817  11
  -1   0  -1 138.287 70.0538   4
   1   0   2 28821.1 1510.60   6
  -1   0  -2 30773.4 1494.82   7
   1   0   2 26733.0 1545.98   8
   1   0   2 29405.1 1622.85   1
  -1   0  -2 31994.6 1615.02   2
  -1   0  -2 26691.5 1283.50  10
  -1   0  -2 30416.8 1579.05   4
   1   0   3-165.701 568.069   8
  -1   0  -3 69.7201 359.275   2
  -1   0  -3-110.862 333.338   4
   1   0   3 804.749 771.712   3
   1   0   3-497.625 570.296   1
  -1   0  -3 87.1402 87.3064   7
  -1  -1   6 8508.56 1944.31   8
  -1  -1   6 5576.63 1619.56   1
   1   1  -6 26415.1 2970.01   2
  -1  -1   6 13141.3 2397.78   9
   1   1  -6 27948.9 2888.19   5
   1   1  -5 7565.30 1003.43  12
  -1  -1   5 8531.50 1200.83   8
   1   1  -5 7215.32 1002.78   5
  -1  -1   5 9363.05 1473.47   3
   1   1  -5 8060.41 1048.20   2
  -1  -1   5 6239.71 915.697   1
   1   1  -5 8264.85 1114.83   4
  -1  -1   5 8392.91 1097.17   9
  -1  -1   4 14429.6 1172.56   9
  -1  -1   4 16391.6 1264.69   1
  -1  -1   4 15863.6 1330.34   8
   1   1  -4 15451.3 1158.22   2
  -1  -1   4 17461.6 1345.31   3
   1   1  -4 14154.8 1196.85   5
   1   1  -4 15503.2 1201.25  12
   1   1  -4 14780.9 1121.28   4
  -1  -1   3 12549.5 1018.76   8
  -1  -1   3 13234.5 926.429   1
   1   1  -3 12870.0 893.610   2
   1   1  -3 13011.9 968.980  12
  -1  -1   3 12116.6 919.682   9
   1   1  -3 13036.0 783.903  13
   1   1  -3 15009.3 862.976  14
   1   1  -3 12715.8 874.759   4
  -1  -1   3 15345.3 1032.23   3
   1   1  -3 11539.6 916.611   5
  -1  -1   3 14694.8 843.602  16
  -1  -1   3 14165.2 803.758  15
   1  -1   1 25024.9 1143.52   3
  -1   1  -1 21278.1 970.824   4
   1  -1   1 23887.4 1100.57   6
   1  -1   1 25149.5 1088.77   1
  -1   1  -1 24783.7 1082.62   7
  -1   1  -1 24982.2 1196.12  10
  -1   1  -2 35211.2 1578.92   4
   1  -1   2 37935.3 1646.70   1
  -1   1  -2 36512.3 1286.66  10
  -1   1  -2 40820.2 1627.86   7
  -1   1  -2 42728.6 1812.29   2
  -1   1  -2 40236.9 1485.14   5
   1  -1   2 35999.3 1457.89   8
   1  -1   2 41194.3 1809.42   3
   1  -1   2 40147.8 1692.79   6
   1  -1   3 47.0742 88.6829   3
  -1   1  -3-133.960 142.142   5
  -1   1  -3 12.7363 108.787   4
   1  -1   3 65.6933 102.532   6
   1  -1   3 22.4986 64.7397  11
   1  -1   3-36.3678 48.0353   1
   1  -1   3 30.4524 85.5849   8
  -1   1  -3-125.754 201.569   2
  -1   1  -3-16.6482 68.1542  10
  -1   1  -3 26.0886 61.4882   7
   1  -1   4 74574.7 2894.21   8
  -1   1  -4 69276.1 2884.65   4
   1  -1   4 69844.3 2724.58   6
   1  -1   4 73120.6 3054.11   1
   1  -1   4 79676.3 3290.23   3
  -1   1  -4 72149.8 2909.36   5
  -1   1  -4 73359.9 2866.25   7
  -1   1  -4 79041.4 3239.67   2
   1  -1   5 15668.4 1859.44   1
   1  -1   5 16033.2 1835.47   8
  -1   1  -5 22170.8 2247.36   2
  -1   1  -5 16247.0 1718.81   4
   1  -1   5 17660.7 2137.75   3
  -1   1  -5 15884.4 2108.72   5
  -1   1  -5 16917.5 1812.01   7
   1   2  -7 1195.87 603.427   5
  -1  -2   7 899.519 568.126   8
   1   2  -7 1889.72 599.480   2
  -1  -2   7 2496.68 1303.59   3
  -1  -2   6 269.254 340.308   9
   1   2  -6 414.949 374.332   5
  -1  -2   6-70.8460 215.706   1
   1   2  -6-22.8927 143.427  12
   1   2  -6 189.838 246.322   2
   1   2  -6 176.537 127.891   4
  -1  -2   6 288.120 235.742   8
  -1  -2   6-246.606 285.874   3
   1   2  -5 6257.49 952.661   5
  -1  -2   5 7123.68 949.797   1
  -1  -2   5 6846.05 1061.65   8
   1   2  -5 7136.44 899.081   2
   1   2  -5 6494.74 875.492   4
  -1  -2   5 6402.49 891.005   9
   1   2  -5 6140.62 882.522  12
  -1  -2   5 6779.08 937.688   3
  -1  -2   4 304954. 6105.85   8
  -1  -2   4 295021. 5662.59   1
   1   2  -4 286318. 5639.79   5
   1   2  -4 288363. 5508.58   2
   1   2  -4 293742. 5343.97   4
  -1  -2   4 305066. 5836.28   9
  -1  -2   4 295440. 5451.19   3
  -1  -2   3 107032. 2671.33  15
  -1  -2   3 102875. 3470.73   8
   1   2  -3 106763. 3075.07   5
  -1  -2   3 108015. 3268.89   3
  -1   2  -3 246134. 4788.41   5
  -1   2  -3 249455. 5626.35   7
   1  -2   3 245502. 5598.14   8
   1  -2   3 257215. 5004.35   6
  -1   2  -3 245918. 5265.48   2
   1  -2   3 248401. 5172.82   1
   1  -2   3 253247. 5368.96   3
  -1   2  -3 253377. 5186.80   4
   1  -2   4 2092.07 533.978   8
  -1   2  -4 1417.13 422.798   4
   1  -2   4 1386.17 426.289   3
   1  -2   4 2196.65 485.539   6
   1  -2   4 1519.55 445.559   1
  -1   2  -4 1839.60 458.412   7
  -1   2  -4 1659.63 390.094   5
  -1   2  -4 1433.13 439.847   2
   1  -2   5 66459.5 2988.74   6
  -1   2  -5 63400.2 2936.82   7
   1  -2   5 65735.7 3360.23   3
   1  -2   5 61944.5 3117.52   8
  -1   2  -5 64457.7 3222.33   4
   1  -2   5 65139.9 3301.25   1
  -1   2  -5 64888.2 3274.23   2
  -1   2  -5 65816.4 3137.55   5
  -1   2  -6 26816.2 2417.68   2
   1  -2   6 28240.3 2447.43   8
   1  -2   6 20085.2 2130.00   1
   1  -2   6 28241.4 2517.56   3
  -1   2  -6 23335.2 2209.43   4
  -1   2  -6 28913.9 2449.82   5
   1  -2   7 977.853 820.793   3
  -1   2  -7 972.207 623.331   2
   1  -2   7 295.817 754.048   8
  -1   2  -7 822.454 835.105   4
   1  -2   7-700.825 503.424   1
   1   3  -7 8191.16 1596.19   5
  -1  -3   7 6038.32 1339.46   8
   2   0  -4 3759.33 844.823  12
   2   0  -4 4880.16 995.780   2
  -2   0   4-144.278 314.232   8
  -2   0   3 61.5144 63.2713   9
  -2   0   3 1.95959 96.8041   8
  -2   0   3 23.8488 311.167  15
  -2   0   3-143.025 166.570   1
   2   0  -3-133.749 227.368  13
  -2   0   3-18.5632 141.922  16
   2   0  -3-210.965 122.522   2
   2   0  -3-200.035 219.003  12
  -2   0   2 177698. 3430.23   9
  -2   0   2 176553. 3429.10  16
  -2   0   2 179908. 3526.68  10
   2   0  -2 175451. 3401.21  12
   2   0  -2 168612. 3378.33  13
  -2   0   2 182105. 2941.52   8
  -2   0   2 184658. 3680.73  15
   2   0  -2 176035. 4383.42   5
  -2   0   1 107.433 100.088   9
  -2   0   1 84.5333 60.6899  15
  -2   0   1 129.306 123.562  16
   2   0  -1 48.6446 33.5308  12
  -2   0   1 141.546 88.4871  10
  -2   0   0 29588.3 1412.46  10
   2   0   0 28481.4 1304.21  14
  -2   0   0 30038.7 1292.72   7
  -2   0   0 27896.6 1214.41  16
   2   0   0 31207.1 1320.42   6
   2   0   0 28001.0 1378.46  11
  -2   0   0 30473.8 1372.16  15
   2   0   1 281.745 251.012   3
  -2   0  -1 10.7152 99.4020  10
   2   0   1-122.113 144.784  11
   2   0   1-24.0375 67.9084   1
  -2   0  -1-0.20321 80.1747   4
  -2   0  -1 71.6330 65.9688   2
  -2   0  -1 116.318 91.5219  15
   2   0   1-111.845 68.0462   6
   2   0   1 18.3530 72.0154  14
  -2   0  -1-65.8109 97.6912   7
   2   0   2 203519. 5143.94   6
  -2   0  -2 201097. 4736.08   2
   2   0   2 202761. 4761.67   1
   2   0   2 196177. 5228.24  11
   2   0   2 200600. 3955.36   8
  -2   0  -2 198096. 4921.43   7
  -2   0  -2 198098. 3838.50  15
  -2   0  -2 195430. 4685.19  10
   2   0   3-170.750 400.741   8
  -2   0  -3 117.301 175.868  10
   2   0   3-43.2329 274.606   1
  -2   0  -3 277.896 391.339   7
  -2   0  -3 19.8110 261.582   2
  -2  -1   6 70414.9 3037.45   9
  -2  -1   6 69080.1 2918.97   8
  -2  -1   5 23528.7 1910.85   9
  -2  -1   5 22785.6 1891.36   8
   2   1  -5 22069.4 1694.34  12
   2   1  -5 22778.7 1785.80   5
   2   1  -4 408806. 6485.80   5
  -2  -1   4 421202. 6915.64   9
  -2  -1   4 410719. 6651.72   8
  -2  -1   4 424658. 6136.67  16
  -2  -1   4 418195. 6170.00  15
   2   1  -4 395580. 6031.57  14
   2   1  -4 410980. 6678.25  12
   2   1  -4 407879. 5909.16  13
  -2  -1   3 20630.3 1372.98   9
   2   1  -3 20306.5 1229.16   5
  -2  -1   3 22878.7 1338.25   8
  -2  -1   3 22244.4 1330.27  15
  -2  -1   3 23758.6 1135.83   1
   2   1  -3 22812.0 1386.42  14
   2   1  -3 20549.4 986.149   2
   2   1  -3 20751.3 1366.15  12
   2   1  -3 23809.3 1524.08  11
  -2  -1   3 20868.6 1022.30   3
  -2  -1   3 20777.8 1278.81  16
  -2  -1   3 19484.8 863.780  10
   2   1  -3 19948.0 949.271   4
  -2  -1   2 26395.2 1370.39   9
   2   1  -2 23632.6 1024.96   5
  -2  -1   2 25904.7 1394.74  15
   2   1  -2 27388.5 1410.56  14
   2   1  -2 27729.3 1258.88  11
  -2  -1   2 26775.5 1403.56  16
  -2  -1   2 28357.5 1181.44  10
  -2  -1   1 33960.1 1731.69  15
   2   1  -1 31174.2 1516.15  14
  -2  -1   1 32614.7 1582.11  16
  -2  -1   1 32388.3 1490.72  10
  -2   1   0 131224. 3792.52   7
  -2   1   0 125492. 3727.06  16
  -2   1   0 129168. 3252.70   4
   2  -1   0 127076. 3481.63   6
  -2   1   0 125781. 4002.89  10
   2  -1   0 125534. 3306.89   3
  -2   1  -1 285601. 4607.95   7
  -2   1  -1 295027. 4299.79   2
  -2   1  -1 287445. 4184.88   4
   2  -1   1 277655. 4659.58   6
   2  -1   1 278850. 4275.52   3
  -2   1  -1 283026. 4618.28  10
  -2   1  -1 289885. 3460.59  16
   2  -1   1 285607. 4149.61   1
  -2   1  -2 13493.0 849.073   5
  -2   1  -2 15568.5 1249.48   2
  -2   1  -2 12974.4 1067.28   4
  -2   1  -2 13353.6 1117.80   7
   2  -1   2 13630.6 881.871   8
   2  -1   2 13388.0 1106.96   1
   2  -1   2 13750.4 1185.12   6
   2  -1   2 15189.3 1110.38  11
   2  -1   2 13903.7 1140.42   3
  -2   1  -2 13423.3 1035.94  10
   2  -1   3 121039. 3200.24   8
  -2   1  -3 113431. 3652.14   7
   2  -1   3 118857. 3125.11  11
   2  -1   3 112228. 3614.74   1
   2  -1   3 119529. 3751.49   6
  -2   1  -3 115641. 3639.94   4
   2  -1   3 122999. 3850.58   3
  -2   1  -3 117678. 3226.32  10
  -2   1  -3 120257. 3305.24   5
  -2   1  -3 120715. 3862.10   2
  -2   1  -4 68984.5 3315.56   4
   2  -1   4 76351.6 3467.79   1
  -2   1  -4 74231.5 3423.46   2
   2  -1   4 72884.5 3241.84   6
   2  -1   4 81843.0 3831.63   3
  -2   1  -4 73336.0 3350.42   7
  -2   1  -5 21069.3 2648.56   4
  -2   1  -5 22276.7 2896.60   7
   2  -1   5 17309.2 3038.55   3
   2  -1   5 16291.7 2461.66   1
  -2   1  -5 17868.0 2436.04   2
   2   2  -7 46.3878 315.900   5
  -2  -2   7 727.524 454.906   9
  -2  -2   7 1115.38 471.523   8
   2   2  -7 1251.63 588.773  12
  -2  -2   6 81072.6 3741.13   9
  -2  -2   6 91593.7 4182.16   8
   2   2  -6 85891.0 3770.44  12
   2   2  -6 82660.9 3699.53   5
  -2  -2   5 2169.71 697.744   9
   2   2  -5 1485.08 495.591   5
  -2  -2   5 1929.96 664.295   8
   2   2  -5 1373.95 535.776  12
  -2  -2   4 1249.87 368.429   9
   2   2  -4 1609.54 397.314   5
  -2  -2   4 1549.45 369.077  15
  -2  -2   4 1304.51 425.564   8
  -2  -2   3 198549. 4632.70   9
  -2  -2   3 201470. 4520.24  15
  -2   2  -2 57939.9 2182.60   5
  -2   2  -2 53045.1 2625.94   4
  -2   2  -2 63197.4 3299.66   7
   2  -2   2 42742.5 2413.16   6
   2  -2   2 49553.9 2599.19   3
  -2   2  -3 493.506 308.661   2
   2  -2   3-107.223 210.342   3
   2  -2   3 711.069 308.261   1
  -2   2  -3-26.2404 136.152   4
  -2   2  -3 283.379 210.080   7
   2  -2   3 60.6709 221.045   6
   2  -2   4 3321.99 695.668   3
  -2   2  -4 2425.64 610.791   7
   2  -2   4 1983.94 502.143   1
   2  -2   4 2327.95 547.659   6
  -2   2  -4 2827.57 644.769   2
  -2   2  -4 2549.04 601.534   4
  -2   2  -5 23715.1 2033.04   4
  -2   2  -5 24134.0 2016.48   7
  -2   2  -5 22024.3 1999.74   2
   2  -2   5 24056.6 1965.07   6
   2  -2   5 25630.8 2209.53   3
   2  -2   5 23890.9 2056.78   1
  -2   2  -6 33577.0 3125.43   2
  -2   2  -6 36859.6 3186.68   4
  -2   2  -6 36688.3 3630.40   7
   2  -2   6 31908.5 3106.25   3
   2  -2   6 23628.9 2532.47   6
   2  -2   6 26879.8 2704.23   1
  -3   0   4 9903.78 732.810   9
  -3   0   4 10009.1 678.121  16
  -3   0   4 10109.5 648.620   8
  -3   0   3-28.3860 104.731   9
  -3   0   3-7.24259 130.418  16
  -3   0   3-52.4273 58.2772   8
  -3   0   3 49.3049 162.934  15
   3   0  -3 112.606 239.129  13
   3   0  -3 18.2503 178.695  12
  -3   0   2 8431.57 817.785   9
  -3   0   2 8730.87 876.540  16
   3   0  -2 9298.62 851.343  12
  -3   0   2 8059.90 912.816  15
   3   0  -2 7996.24 851.720  13
  -3   0   2 8076.36 835.036  10
  -3   0   1-13.2565 148.254   9
  -3   0   1-125.517 118.415  16
   3   0  -1-36.3695 78.6289  13
   3   0  -1-9.31579 77.0542  12
  -3   0   1-120.162 148.666  15
   3   0  -1 234.920 163.410  11
   3   0  -1-81.8517 98.6495   6
  -3   0   1 413.294 165.660   7
  -3   0   1 201.043 59.2009  10
  -3   0   0 42421.1 1936.17   7
  -3   0   0 39762.8 1871.47  16
  -3   0   0 43686.3 2072.98  15
   3   0   0 45134.6 2027.29  14
   3   0   0 41958.2 1834.03   6
   3   0   0 43908.7 2101.88  11
  -3   0   0 43084.1 2174.44  10
   3   0   1-148.045 98.7500   1
  -3   0  -1 176.936 123.630  15
   3   0   1 230.579 260.825  14
  -3   0  -1 13.7588 62.7095   7
   3   0   1 128.894 170.371  11
   3   0   1 166.178 51.6192   6
  -3   0  -1-24.1009 64.3168   2
  -3   0  -1-48.1770 101.726  10
  -3   0  -2 160770. 4938.88   2
   3   0   2 160660. 5008.22   1
  -3   0  -2 161141. 5409.44   7
   3   0   2 160399. 5700.74   6
   3   0   2 156847. 5725.21  11
  -3   0  -2 156206. 5463.23  10
  -3  -1   6 9310.98 1695.87   9
  -3  -1   6 5441.84 1185.51   8
   3   1  -6 17759.4 1999.14  12
   3   1  -6 16157.3 2953.22   5
  -3  -1   5 5125.00 960.366   9
  -3  -1   5 4192.28 783.073   8
  -3  -1   5 2782.55 901.804  15
   3   1  -5 5428.11 928.153  14
  -3  -1   5 5859.87 1010.73  16
   3   1  -5 3823.31 786.736  13
   3   1  -5 3996.92 781.806  12
   3   1  -5 5590.34 986.543   5
  -3  -1   4 5137.04 818.660   9
  -3  -1   4 4749.18 694.505   8
  -3  -1   4 4939.43 764.173  16
  -3  -1   4 4201.76 680.470  15
   3   1  -4 4948.14 787.524  14
   3   1  -4 4304.90 692.381  13
   3   1  -4 3864.60 680.342  12
   3   1  -4 4210.28 658.239   5
   3   1  -3 44481.4 1852.66   5
  -3  -1   3 47096.8 2270.97   9
  -3  -1   3 47993.1 1952.57   8
  -3  -1   3 44885.3 2315.64  16
  -3  -1   3 47144.6 2286.07  15
   3   1  -3 47347.9 2381.07  14
   3   1  -3 49810.7 2318.99  12
   3   1  -3 45805.7 1896.01  11
  -3  -1   3 44259.8 1786.43  10
  -3  -1   2 11020.0 1000.79   9
  -3  -1   2 11160.4 1054.89  16
  -3  -1   2 12113.4 1120.72  15
   3   1  -2 10514.1 1043.51  14
   3   1  -2 10949.5 956.418  11
  -3  -1   2 12334.9 1009.98  10
  -3   1   1 205546. 8233.60   9
  -3   1   1 197900. 8187.58  16
  -3  -1   1 200765. 5459.29  16
  -3  -1   1 200314. 5359.16  15
   3   1  -1 200485. 5157.91  14
  -3  -1   1 207238. 4098.13   7
   3   1  -1 201392. 5454.03  11
   3  -1  -1 202890. 6066.87   6
  -3  -1   1 207991. 5049.75  10
  -3   1   0 39356.3 3368.39  15
  -3   1   0 39988.2 2344.08  16
  -3   1   0 40771.4 1997.96   4
  -3   1   0 40040.5 2682.76   7
   3  -1   0 40757.1 2877.39  13
   3  -1   0 39352.6 2449.57   6
   3  -1   0 39976.2 2093.26   3
  -3   1   0 39802.1 2900.62  10
  -3   1  -1 76966.6 2348.88  16
  -3   1  -1 85522.9 2631.06   4
  -3   1  -1 86621.8 3188.29  15
  -3   1  -1 81252.2 2971.79   7
   3  -1   1 91398.5 2620.86  14
  -3   1  -1 81432.3 2575.31   2
   3  -1   1 82274.3 2937.33   6
   3  -1   1 83613.6 2976.94  11
   3  -1   1 84081.3 2613.29   3
  -3   1  -1 84867.0 3060.84  10
   3  -1   1 86691.4 2619.38   1
  -3   1  -2 11995.0 1095.39   4
  -3   1  -2 14120.2 1253.80   2
  -3   1  -2 10706.6 1172.67   7
   3  -1   2 12259.7 1141.24   1
   3  -1   2 12215.7 1247.98   6
   3  -1   2 11389.8 1086.22   3
   3  -1   2 13579.0 1231.12  11
  -3   1  -2 11773.1 1175.66  10
   3  -1   3 2524.50 587.575   3
  -3   1  -3 2574.30 591.577   4
  -3   1  -3 2531.27 604.744   7
   3  -1   3 1670.58 467.945   1
   3  -1   3 2519.72 529.944  11
   3  -1   3 2174.94 568.384   6
  -3   1  -3 2566.15 638.478   2
  -3   1  -3 2747.05 596.385  10
  -3   1  -4 126216. 5534.01   4
  -3   1  -4 115151. 4705.16   2
  -3   1  -4 120181. 4998.44   7
   3  -1   4 118509. 4731.27   1
   3  -1   4 109559. 5917.09   3
   3  -1   4 116838. 4753.31   6
  -3  -2   7 16565.3 2178.85   9
   3   2  -7 18338.3 2049.61  12
   3   2  -7 20743.1 2395.54   5
  -3  -2   6 30125.6 2421.43   9
  -3  -2   6 30896.3 2492.05   8
   3   2  -6 30179.5 2318.75  12
   3   2  -6 30969.0 2387.90   5
   3   2  -5 69810.4 3218.45   5
  -3  -2   5 69168.8 3429.17   9
  -3  -2   5 74038.8 3618.55   8
   3   2  -5 66148.4 3304.32  12
  -3  -2   4 2352.56 554.805   9
   3   2  -4 3646.45 698.462   5
  -3  -2   4 2128.97 582.658  16
  -3  -2   4 3063.42 591.871  15
   3   2  -4 3419.46 754.994  14
  -3   2  -2 53346.3 3885.04   4
  -3   2  -2 54712.1 3873.96   7
   3  -2   2 55819.3 3727.36   6
   3  -2   2 53222.7 3747.11   3
  -3   2  -3 107278. 4342.17   4
   3  -2   3 96054.1 3975.92   1
  -3   2  -3 96926.0 4038.39   7
  -3   2  -3 107057. 4403.17   2
   3  -2   3 95798.0 4012.71   6
   3  -2   3 102044. 3759.19  11
   3  -2   3 102771. 4052.23   3
   3  -2   4 10559.3 1357.54   1
  -3   2  -4 9407.78 1337.42   4
  -3   2  -4 10452.0 1351.76   7
  -3   2  -4 9793.00 1306.95   2
   3  -2   4 9629.85 1280.25   6
   3  -2   4 11248.2 1415.63   3
  -3   2  -5 21608.2 2912.66   4
  -3   2  -5 20460.0 2840.35   7
  -3   2  -5 19070.4 2676.54   2
   3  -2   5 20237.3 2721.31   6
   3  -2   5 23348.1 3311.48   3
   3  -2   6 11620.2 2142.20   1
  -3   2  -6 15519.8 2522.48   2
   3  -2   6 14408.5 2543.30   6
   3  -2   6 13253.7 3411.49   3
  -4   0   4 335.345 220.843   9
  -4   0   4 497.039 406.774  15
   4   0  -4 143.849 255.922  13
  -4   0   4-303.712 309.838  16
   4   0  -4 443.689 322.351  12
  -4   0   3-100.034 122.970  10
  -4   0   3-114.976 201.469   9
  -4   0   3 451.199 359.711  16
  -4   0   3-310.399 305.568  15
   4   0  -3 24.1216 204.683  13
   4   0  -3-38.9257 254.416  12
   4   0  -3-13.4870 127.015  11
  -4   0   2 46170.6 2137.62   9
  -4   0   2 44690.8 2397.57  16
  -4   0   2 49570.6 2705.71  15
   4   0  -2 45963.5 2441.33  13
   4   0  -2 48794.1 2233.01  12
   4   0  -2 42609.4 2273.48  11
  -4   0   2 41575.5 2243.73  10
  -4   0   1-72.6765 52.5013  15
  -4   0   1-139.471 82.6042  16
   4   0  -1-73.2524 182.425  14
   4   0  -1 276.325 258.679  13
   4   0  -1 262.007 149.793  11
  -4   0   1-489.461 359.839  10
  -4   0   0 102392. 4205.94  16
  -4   0   0 107941. 4315.58  15
  -4   0   0 105150. 4048.52   7
   4   0   0 106493. 4138.34  14
   4   0   0 102059. 4039.12  13
   4   0   0 102028. 3968.73   6
   4   0   0 107466. 4475.28  11
  -4   0   0 108338. 4498.35  10
  -4   0  -1 136.318 106.078  15
  -4   0  -1-147.200 194.973   7
   4   0   1 390.787 179.375  11
   4   0   1-122.777 287.231   6
  -4   0  -1-56.6736 139.419  10
  -4   0  -2 43020.7 2950.19   7
   4   0   2 41074.3 3262.29   6
  -4   0  -2 43700.1 3021.56  10
  -4  -1   6-360.372 535.465   9
  -4  -1   6 149.118 438.515  16
   4   1  -6 127.282 291.991  12
  -4  -1   5 20012.1 1944.01   9
  -4  -1   5 17517.3 1868.50  16
  -4  -1   5 22645.5 2354.40  15
   4   1  -5 28218.5 2309.87  14
   4   1  -5 27916.0 2291.89  13
   4   1  -5 24717.1 2039.23  12
  -4  -1   4 2980.72 675.947   9
  -4  -1   4 3037.40 689.506  16
  -4  -1   4 3632.25 741.699  15
   4   1  -4 2848.01 629.950  14
   4   1  -4 2886.80 663.610  13
   4   1  -4 2685.27 630.378  12
  -4  -1   3 30851.6 1954.08   9
  -4  -1   3 31414.8 2148.73  16
  -4  -1   3 33745.8 2248.03  15
   4   1  -3 30883.4 2096.13  14
   4   1  -3 30908.0 2103.01  13
   4   1  -3 31080.3 2013.96  12
   4   1  -3 29016.3 1843.14  11
  -4  -1   3 30621.4 1804.21  10
  -4  -1   2 10229.6 1180.94   9
  -4  -1   2 11607.9 1319.95  16
  -4  -1   2 11276.1 1300.97  15
   4   1  -2 11643.1 1261.54  14
   4   1  -2 12179.4 1143.54  12
   4   1  -2 12066.3 1231.83  11
  -4  -1   2 11894.9 1229.46  10
  -4   1   1 2343.49 655.286  16
  -4  -1   1 2031.12 683.720  16
  -4  -1   1 2398.63 587.813  15
  -4   1   1 1431.18 716.955  15
   4   1  -1 2641.58 643.134  14
   4  -1  -1 2114.50 794.239  13
   4   1  -1 2459.16 645.381  11
   4  -1  -1 2836.01 674.116   6
  -4  -1   1 2172.20 517.327  10
  -4   1   1 2340.69 719.730  10
  -4   1   0 107404. 4580.53  16
  -4   1   0 107979. 4791.14   7
   4  -1   0 102753. 5160.39  13
   4  -1   0 103012. 4583.86   6
   4  -1   0 105536. 4688.08  11
  -4   1   0 103227. 5272.72  10
  -4   1  -1 3395.39 671.918   7
   4  -1   1 3360.59 722.499  11
   4  -1   1 2932.28 597.677   6
  -4   1  -1 3310.50 698.401  10
  -4   1  -2 191148. 5543.75   7
   4  -1   2 189035. 5351.94   6
   4  -1   2 195993. 5396.12  11
  -4   1  -2 191755. 5477.86  10
  -4   1  -3 7134.56 1138.34   7
   4  -1   3 7859.67 1191.09   6
   4  -1   3 9282.02 1260.28   1
   4  -1   3 8841.08 1221.80  11
  -4   1  -3 8607.47 1293.58  10
  -4   1  -4 726.855 444.728   7
   4  -1   4 445.733 223.363   6
  -4  -2   7 3167.51 842.454   9
   4   2  -7 5767.30 1208.37  12
  -4  -2   6 12212.6 1616.19   9
   4   2  -6 9811.13 1398.48  12
  -4  -2   5 1467.92 580.224   9
  -4  -2   5 1480.37 765.172  16
  -4  -2   5 1673.58 637.532  15
   4   2  -5 1600.76 708.453  14
   4   2  -5 1226.96 502.613  13
   4   2  -5 1151.21 531.149  12
  -4  -2   4 5889.85 1124.41   9
  -4  -2   4 5376.88 1187.71  16
  -4  -2   4 6539.20 1127.95  15
   4   2  -4 10124.7 1516.12  14
   4   2  -4 9709.73 1515.85  12
  -4   2  -2 40729.2 3475.39   7
   4  -2   2 33751.0 3002.86   6
   4  -2   2 31423.2 2734.35  11
  -4   2  -3 4697.99 1155.57   4
  -4   2  -3 5047.73 1036.08   7
   4  -2   3 3773.86 797.167  11
   4  -2   3 4235.82 952.540   6
  -4   2  -4 28377.5 2590.45   7
   4  -2   4 24318.9 2415.54   1
   4  -2   4 24268.2 2264.27   6
  -4   2  -5-1140.71 861.985   2
  -4   2  -5-1269.98 10062.4   4
   4  -2   5 374.412 332.390   1
   4  -2   5-2574.88 3426.73   3
  -5   0   4 15996.4 3914.89  15
   5   0  -4 25142.3 3011.24  14
   5   0  -4 23111.3 3047.57  13
  -5   0   3 79.2717 85.8764  16
  -5   0   3-465.867 114.138  15
   5   0  -3 78.6818 166.675  14
   5   0  -3-230.456 182.640  13
   5   0  -3 46.3535 158.368  11
  -5   0   3-95.1568 370.250  10
  -5   0   2 7353.23 1144.58  16
  -5   0   2 6635.40 1143.61  15
   5   0  -2 6542.98 1037.46  14
   5   0  -2 7077.43 1075.33  13
   5   0  -2 6521.13 982.779  11
  -5   0   2 6771.11 1096.98  10
  -5   0   1 266.304 242.875  16
  -5   0   1 295.123 240.755  15
   5   0  -1 232.896 99.3224  14
   5   0  -1-138.557 55.0414  13
   5   0  -1-150.927 33.5448  11
  -5   0   1 187.335 212.426  10
  -5   0   0 208443. 7326.77  16
  -5   0   0 203203. 6578.57  15
   5   0   0 201488. 7122.25  14
   5   0   0 200791. 6604.40  13
   5   0   0 202710. 6808.05  11
  -5   0   0 200827. 7388.19  10
  -5   0  -1 446.693 56.0728   7
   5   0   1-343.038 364.219  11
  -5   0  -1 5.63366 216.204  10
  -5  -1   6 153.614 400.697   9
  -5  -1   6 1926.68 1254.79  16
   5   1  -6 1008.23 586.108  12
  -5  -1   5 626.647 664.787   9
  -5  -1   5 1918.54 853.585  16
  -5  -1   5 600.538 442.001  15
   5   1  -5 1170.71 567.264  14
   5   1  -5 370.127 181.948  13
   5   1  -5 827.883 456.739  12
  -5  -1   4 10690.2 1390.87   9
  -5  -1   4 9189.71 1335.03  16
  -5  -1   4 10024.6 1370.98  15
   5   1  -4 8545.23 1204.89  14
   5   1  -4 8861.13 1294.73  13
   5   1  -4 10154.1 1321.49  12
  -5  -1   3 4884.94 948.266  16
  -5  -1   3 4866.88 911.520  15
   5   1  -3 5080.36 923.237  14
   5   1  -3 4198.71 810.622  13
  -5  -1   2 158174. 6531.50  16
  -5  -1   2 164303. 5999.49  15
   5   1  -2 158147. 6053.89  14
   5   1  -2 159872. 5951.02  13
   5   1  -2 158456. 6195.14  11
  -5  -1   2 162867. 6274.21  10
  -5   1   1 13811.1 2071.38  16
   5  -1  -1 14682.0 1923.30  14
   5  -1  -1 16335.1 2284.01  11
  -5   1   1 14750.6 2318.17  10
  -5   1   0 12911.1 2484.07   7
   5  -1   0 12765.3 2467.17   6
   5  -1   0 12990.2 2291.30  11
  -5   1   0 12836.6 2668.38  10
  -5   1  -1 3337.15 748.327   7
   5  -1   1 3776.02 826.334  11
   5  -1   1 3717.76 819.626   6
  -5   1  -1 3530.28 838.336  10
  -5   1  -2 7819.17 1239.92   7
   5  -1   2 8011.41 1263.34   6
   5  -1   2 7894.57 1204.49  11
  -5   1  -2 9324.09 1397.43  10
  -5   1  -3 617.700 484.017   7
   5  -1   3 796.205 494.983   6
  -5   1  -3 501.346 502.261  10
  -5  -2   6 7850.05 1545.32   9
   5   2  -6 10101.7 1779.37  12
   5   2  -5 52927.4 4168.63  12
  -5   2  -3 3541.25 1317.33   7
   5  -2   3 1313.55 634.289   6
  -6   0   3 531.950 812.511  16
  -6   0   3 204.674 621.725  15
   6   0  -3 287.102 731.518  14
   6   0  -3-243.318 389.927  13
   6   0  -3 904.313 704.836  11
  -6   0   2 100266. 6228.37  16
  -6   0   2 100627. 6792.13  15
   6   0  -2 101360. 5483.52  14
   6   0  -2 102830. 6034.45  13
   6   0  -2 102656. 5799.72  11
  -6   0   2 103296. 6230.29  10
  -6   0   1 315.035 399.872  16
  -6   0   1-669.787 542.712  15
   6   0  -1 284.826 363.911  14
   6   0  -1-333.975 284.320  13
   6   0  -1-195.599 265.799  11
  -6   0   1 66.0679 257.434  10
   6   0   0 16394.3 1991.60  11
  -6   0   0 10762.5 1740.51  10
  -6  -1   5 869.062 396.809  16
  -6  -1   5 2558.19 1106.24  15
   6   1  -5 2082.68 801.928  14
   6   1  -5 3713.79 1353.78  13
   6   1  -5 2206.97 1074.93  12
  -6  -1   4 40560.2 3522.79  16
  -6  -1   4 43484.0 3810.20  15
   6   1  -4 33245.7 2759.03  14
   6   1  -4 38669.9 3214.93  13
  -6  -1   3 906.976 332.845  16
  -6  -1   3 760.759 386.511  15
   6   1  -3 1689.43 661.487  14
   6   1  -3 933.498 332.412  13
   6  -1   0 15001.3 2172.70  11
  -6   1   0 13489.7 2350.71  10
  -6   1  -1 3431.24 1156.18   7
   6  -1   1 4027.28 1116.77  11
   6  -1   1 6105.61 1812.42   6
  -6   1  -1 2840.19 836.502  10
  -6   1  -2 6036.52 1572.05   7
   0   0   0    0.00    0.00   0

TITL dimethyl_ether_phase_beta_4_30GPa in P2(1)/c
REM P2(1)/c (#14 in standard setting)
CELL 0.71073   5.507282   6.492743   6.843054  90.0000 103.8475  90.0000
ZERR    4.00   0.000403   0.005124   0.000784   0.0000   0.0080   0.0000
LATT  1
SYMM -x, y+1/2,-z+1/2
SFAC C H O
UNIT 8.00 24.00 4.00
TREF
HKLF 4
END
;
_shelx_hkl_checksum              53218
_olex2_submission_special_instructions 'No special instructions were received'
loop_
_space_group_symop_operation_xyz
'x, y, z'
'-x, y+1/2, -z+1/2'
'-x, -y, -z'
'x, -y-1/2, z-1/2'
loop_
_atom_site_label
_atom_site_type_symbol
_atom_site_fract_x
_atom_site_fract_y
_atom_site_fract_z
_atom_site_U_iso_or_equiv
_atom_site_adp_type
_atom_site_occupancy
_atom_site_site_symmetry_order
_atom_site_calc_flag
_atom_site_refinement_flags_posn
_atom_site_refinement_flags_adp
_atom_site_refinement_flags_occupancy
_atom_site_disorder_assembly
_atom_site_disorder_group
O1 O 0.7272(3) 0.3391(10) 0.1848(3) 0.024(5) Uani 1 1 d . . . . .
C1 C 0.9077(5) 0.1760(14) 0.2313(5) 0.031(5) Uani 1 1 d . . . . .
H11 H 0.908494 0.100137 0.111070 0.046 Uiso 1 1 calc R U . . .
H12 H 0.864582 0.085386 0.328685 0.046 Uiso 1 1 calc R U . . .
H13 H 1.070601 0.233258 0.285415 0.046 Uiso 1 1 calc R U . . .
C2 C 0.4927(5) 0.2529(10) 0.0854(5) 0.020(6) Uani 1 1 d . . . . .
H22 H 0.508326 0.185891 -0.036109 0.031 Uiso 1 1 calc R U . . .
H23 H 0.369889 0.360298 0.052970 0.031 Uiso 1 1 calc R U . . .
H21 H 0.441758 0.154211 0.172140 0.031 Uiso 1 1 calc R U . . .
loop_
_atom_site_aniso_label
_atom_site_aniso_U_11
_atom_site_aniso_U_22
_atom_site_aniso_U_33
_atom_site_aniso_U_23
_atom_site_aniso_U_13
_atom_site_aniso_U_12
O1 0.0257(15) 0.008(14) 0.038(2) 0.0007(10) 0.0069(10) 0.0004(16)
C1 0.026(2) 0.031(18) 0.037(3) 0.006(2) 0.0104(14) 0.006(2)
C2 0.027(2) 0.008(18) 0.026(3) -0.0012(16) 0.0058(12) 0.003(2)
loop_
_atom_type_symbol
_atom_type_description
_atom_type_scat_dispersion_real
_atom_type_scat_dispersion_imag
_atom_type_scat_source
C C 0.0033 0.0016 'International Tables Vol C Tables 4.2.6.8 and 6.1.1.4'
H H 0.0000 0.0000 'International Tables Vol C Tables 4.2.6.8 and 6.1.1.4'
O O 0.0106 0.0060 'International Tables Vol C Tables 4.2.6.8 and 6.1.1.4'
loop_
_geom_angle_atom_site_label_1
_geom_angle_atom_site_label_2
_geom_angle_atom_site_label_3
_geom_angle
_geom_angle_site_symmetry_1
_geom_angle_site_symmetry_3
_geom_angle_publ_flag
C2 O1 C1 108.5(6) . . ?
O1 C1 H11 109.5 . . ?
O1 C1 H12 109.5 . . ?
O1 C1 H13 109.5 . . ?
H11 C1 H12 109.5 . . ?
H11 C1 H13 109.5 . . ?
H12 C1 H13 109.5 . . ?
O1 C2 H22 109.5 . . ?
O1 C2 H23 109.5 . . ?
O1 C2 H21 109.5 . . ?
H22 C2 H23 109.5 . . ?
H22 C2 H21 109.5 . . ?
H23 C2 H21 109.5 . . ?
loop_
_geom_bond_atom_site_label_1
_geom_bond_atom_site_label_2
_geom_bond_distance
_geom_bond_site_symmetry_2
_geom_bond_publ_flag
O1 C1 1.435(10) . ?
O1 C2 1.422(5) . ?
C1 H11 0.9600 . ?
C1 H12 0.9600 . ?
C1 H13 0.9600 . ?
C2 H22 0.9600 . ?
C2 H23 0.9600 . ?
C2 H21 0.9600 . ?
