#------------------------------------------------------------------------------
#$Date: 2024-02-05 14:09:55 +0200 (Mon, 05 Feb 2024) $
#$Revision: 289697 $
#$URL: file:///home/coder/svn-repositories/cod/cif/1/57/04/1570434.cif $
#------------------------------------------------------------------------------
#
# This file is available in the Crystallography Open Database (COD),
# http://www.crystallography.net/
#
# All data on this site have been placed in the public domain by the
# contributors.
#
data_1570434
loop_
_publ_author_name
'Sacharczuk, Natalia'
'Olejniczak, Anna'
'Bujak, Maciej'
'Dziubek, Kamil Filip'
'Katrusiak, Andrzej'
'Podsiad&#x142;o, Marcin'
_publ_section_title
;
 Conformation-aggregation interplay in the simplest aliphatic ethers
 probed under high pressure.
;
_journal_issue                   'Pt 1'
_journal_name_full               IUCrJ
_journal_page_first              57
_journal_page_last               61
_journal_paper_doi               10.1107/S2052252523009995
_journal_volume                  11
_journal_year                    2024
_chemical_formula_moiety         'C2 H6 O'
_chemical_formula_sum            'C2 H6 O'
_chemical_formula_weight         46.07
_chemical_name_systematic        'dimethyl ether'
_space_group_crystal_system      monoclinic
_space_group_IT_number           14
_space_group_name_Hall           '-P 2ybc'
_space_group_name_H-M_alt        'P 1 21/c 1'
_atom_sites_solution_hydrogens   geom
_atom_sites_solution_primary     direct
_audit_creation_method
; Olex2 1.5
(compiled 2022.04.07 svn.rca3783a0 for OlexSys, GUI svn.r6498)
;
_cell_angle_alpha                90
_cell_angle_beta                 103.869(6)
_cell_angle_gamma                90
_cell_formula_units_Z            4
_cell_length_a                   5.5277(4)
_cell_length_b                   6.527(10)
_cell_length_c                   6.8941(5)
_cell_measurement_reflns_used    488
_cell_measurement_temperature    295(2)
_cell_measurement_theta_max      25.7300
_cell_measurement_theta_min      7.6000
_cell_volume                     241.5(4)
_computing_cell_refinement       'CrysAlisPro 1.171.42.49 (Rigaku OD, 2022)'
_computing_data_collection       'CrysAlisPro 1.171.42.49 (Rigaku OD, 2022)'
_computing_data_reduction        'CrysAlisPro 1.171.42.49 (Rigaku OD, 2022)'
_computing_molecular_graphics    'Olex2 1.5 (Dolomanov et al., 2009)'
_computing_publication_material  'Olex2 1.5 (Dolomanov et al., 2009)'
_computing_structure_refinement  'SHELXL 2018/3 (Sheldrick, 2015)'
_computing_structure_solution    'SHELXS  (Sheldrick, 2008)'
_diffrn_ambient_environment      'diamond-anvil cell'
_diffrn_ambient_pressure         3900000
_diffrn_ambient_temperature      295(2)
_diffrn_measured_fraction_theta_full 0.237
_diffrn_measured_fraction_theta_max 0.231
_diffrn_measurement_device_type  'KUMA KM4-CCD, Eos'
_diffrn_measurement_method       '\f- and \w-scans'
_diffrn_radiation_type           MoK\a
_diffrn_radiation_wavelength     0.71073
_diffrn_reflns_av_R_equivalents  0.0308
_diffrn_reflns_av_unetI/netI     0.0216
_diffrn_reflns_Laue_measured_fraction_full 0.237
_diffrn_reflns_Laue_measured_fraction_max 0.231
_diffrn_reflns_limit_h_max       6
_diffrn_reflns_limit_h_min       -6
_diffrn_reflns_limit_k_max       1
_diffrn_reflns_limit_k_min       -1
_diffrn_reflns_limit_l_max       8
_diffrn_reflns_limit_l_min       -8
_diffrn_reflns_number            634
_diffrn_reflns_point_group_measured_fraction_full 0.237
_diffrn_reflns_point_group_measured_fraction_max 0.231
_diffrn_reflns_theta_full        25.242
_diffrn_reflns_theta_max         25.727
_diffrn_reflns_theta_min         7.610
_exptl_absorpt_coefficient_mu    0.098
_exptl_absorpt_correction_T_max  1.00000
_exptl_absorpt_correction_T_min  0.08207
_exptl_absorpt_correction_type   multi-scan
_exptl_absorpt_process_details
;
CrysAlisPro 1.171.42.49 (Rigaku Oxford Diffraction, 2022)
Empirical absorption correction using spherical harmonics,
implemented in SCALE3 ABSPACK scaling algorithm.
;
_exptl_crystal_colour            colourless
_exptl_crystal_density_diffrn    1.267
_exptl_crystal_description       disc
_exptl_crystal_F_000             104
_exptl_crystal_size_max          0.33
_exptl_crystal_size_mid          0.33
_exptl_crystal_size_min          0.24
_refine_diff_density_max         0.171
_refine_diff_density_min         -0.125
_refine_diff_density_rms         0.031
_refine_ls_extinction_method     none
_refine_ls_goodness_of_fit_ref   1.192
_refine_ls_hydrogen_treatment    constr
_refine_ls_matrix_type           full
_refine_ls_number_parameters     15
_refine_ls_number_reflns         107
_refine_ls_number_restraints     0
_refine_ls_restrained_S_all      1.192
_refine_ls_R_factor_all          0.0728
_refine_ls_R_factor_gt           0.0690
_refine_ls_shift/su_max          0.000
_refine_ls_shift/su_mean         0.000
_refine_ls_structure_factor_coef Fsqd
_refine_ls_weighting_details
'w=1/[\s^2^(Fo^2^)+(0.1005P)^2^+0.1680P] where P=(Fo^2^+2Fc^2^)/3'
_refine_ls_weighting_scheme      calc
_refine_ls_wR_factor_gt          0.1661
_refine_ls_wR_factor_ref         0.1724
_reflns_Friedel_coverage         0.000
_reflns_number_gt                99
_reflns_number_total             107
_reflns_threshold_expression     'I > 2\s(I)'
_cod_data_source_file            lq5055.cif
_cod_data_source_block           dimethyl_ether_phase_beta_3_90GPa
_cod_depositor_comments
'Adding full bibliography for 1570433--1570452.cif.'
_cod_database_code               1570434
_shelx_shelxl_version_number     2018/3
_shelx_space_group_comment
;
The symmetry employed for this shelxl refinement is uniquely defined
by the following loop, which should always be used as a source of
symmetry information in preference to the above space-group names.
They are only intended as comments.
;
_exptl_absorpt_special_details
;
Data were collected at room temperature (295(2) K) and pressure of 3.90(2) GPa
(3900000 kPa).
;
_olex2_refinement_description
;
1. Fixed Uiso
 At 1.5 times of:
  All C(H,H,H) groups
2.a Idealised Me refined as rotating group:
 C1(H11,H12,H13), C2(H22,H23,H21)
;
_shelx_res_file
;
TITL 1edm in P21/c #14
    1edm.res
    created by SHELXL-2018/3 at 12:53:57 on 02-Jan-2023
REM reset to P21/c #14
CELL 0.71073 5.527712 6.526867 6.894129 90 103.8687 90
ZERR 4 0.000355 0.010167 0.000469 0 0.0063 0
LATT 1
SYMM -X,0.5+Y,0.5-Z
SFAC C H O
UNIT 8 24 4

L.S. 50
PLAN  10
CONF
BOND
fmap 2 53
MORE -1
BOND $H
ACTA
REM <olex2.extras>
REM <HklSrc "%.\\1edm.hkl">
REM </olex2.extras>

WGHT    0.100500    0.168000
FVAR      39.26130
O1    3    0.726983    0.335880    0.184730    11.00000    0.03098
C1    1    0.907789    0.177776    0.232312    11.00000    0.03085
AFIX 137
H11   2    0.910795    0.101871    0.113639    11.00000   -1.50000
H12   2    0.865988    0.087541    0.329319    11.00000   -1.50000
H13   2    1.068887    0.236969    0.286165    11.00000   -1.50000
AFIX   0
C2    1    0.493941    0.251894    0.088165    11.00000    0.02785
AFIX 137
H22   2    0.504422    0.193813   -0.037492    11.00000   -1.50000
H23   2    0.369749    0.357747    0.065583    11.00000   -1.50000
H21   2    0.449139    0.146997    0.170723    11.00000   -1.50000
AFIX   0
HKLF 4




REM  1edm in P21/c #14
REM wR2 = 0.1724, GooF = S = 1.192, Restrained GooF = 1.192 for all data
REM R1 = 0.0690 for 99 Fo > 4sig(Fo) and 0.0728 for all 107 data
REM 15 parameters refined using 0 restraints

END

WGHT      0.1048      0.1626

REM Highest difference peak  0.171,  deepest hole -0.125,  1-sigma level  0.031
Q1    1   0.7194  0.2973  0.2619  11.00000  0.05    0.17
Q2    1   0.7140  0.3491  0.1047  11.00000  0.05    0.12
Q3    1   0.3837  0.2160 -0.1636  11.00000  0.05    0.09
Q4    1   1.1821  0.3035  0.2808  11.00000  0.05    0.09
Q5    1   0.3746  0.2146  0.1826  11.00000  0.05    0.06
Q6    1   0.9960 -0.0419  0.1355  11.00000  0.05    0.06
Q7    1   0.9972  0.0424  0.1259  11.00000  0.05    0.06
Q8    1   0.8998  0.1379  0.4000  11.00000  0.05    0.06
Q9    1   0.5855  0.3635 -0.1172  11.00000  0.05    0.05
Q10   1   0.8732  0.1249  0.1443  11.00000  0.05    0.05
;
_shelx_res_checksum              48550
_shelx_hkl_file
;
   0   0  -3 17.5987 31.7489   2
   0   0  -3-28.1580 60.7487   4
   0   0   3-105.608 64.1172   6
   0   0  -3 63.3838 75.2296  10
   0   0  -3 31.3244 32.4800   5
   0   0  -3 73.0706 75.7960   7
   0   0   3-62.2503 89.9118  11
   0   0   3-25.4094 61.6048   8
   0   0   3-6.07310 81.4187   1
   0   0  -4 432.507 210.166   4
   0   0  -4 680.744 259.354   7
   0   0   4 378.244 157.478   1
   0   0   4 805.876 263.108   3
   0   0   4 253.040 175.419   6
   0   0   4 497.808 190.404  11
   0   0  -4 135.226 79.2421   2
   0   0   4 636.173 167.241   8
   0   0  -4 326.030 147.345  10
   0   0  -5 26.3338 67.6854  10
   0   0   5-175.338 168.349  11
   0   0   5 7.75499 73.7375   6
   0   0  -5 24.6476 132.979   4
   0   0   5 15.9162 32.2057   1
   0   0  -5 293.552 177.079   7
   0   0   5 254.578 230.568   3
   0   0  -5 62.8295 38.0947   2
   0   0   6 16556.9 1890.99   6
   0   0   6 13495.0 1528.63   1
   0   0  -6 13870.7 1580.48   7
   0   0  -6 13186.3 1481.90  10
   0   0   6 5408.52 1440.18   3
   0   0  -6 7772.37 1204.15   4
   0   0  -6 13861.0 1387.95   2
   0   0  -7 504.000 423.332   7
   0   0   7-534.309 622.982   6
   0   1  -3 66622.9 2244.93   7
   0   1  -3 64620.3 2106.99  10
   0   1  -3 65312.1 2134.71   2
   0  -1   3 67466.7 2279.69   1
   0   1  -3 66669.8 2135.34   4
   0  -1   3 66853.8 2345.71   6
   0   1  -3 66125.2 1767.02   5
   0  -1   3 70931.5 2304.31   3
   0   1  -4 59851.8 2234.79  10
   0  -1   4 61888.0 2384.53   3
   0  -1   4 63050.7 2491.75   1
   0   1  -4 61021.4 2273.17   4
   0   1  -4 66728.4 2584.32   7
   0  -1   4 66858.6 2619.56   6
   0   1  -4 66728.1 2505.05   2
   0   1  -5 9475.75 1036.68   2
   0   1  -5 7602.93 865.814   4
   0   1  -5 9433.37 1079.26   7
   0  -1   5 7794.87 886.699   3
   0   1  -5 8398.66 978.167  10
   0  -1   5 9618.61 1102.57   6
   0  -1   5 10903.7 1094.32  11
   0  -1   5 10460.2 1108.91   1
   0  -1   6 26673.2 1985.82   1
   0  -1   6 26303.0 2082.75   6
   0   1  -6 20717.8 1660.81   4
   0  -1   6 25366.6 1901.30   3
   0   1  -6 24160.3 1884.02   7
   0   1  -6 23847.1 1828.37   2
   0   1  -7 389.188 454.720   2
   0   1  -7-55.9729 189.956   4
   0  -1   7 409.412 475.413   1
   0   1  -7-279.266 92.7168   7
   0  -1   7 760.646 503.597   3
   0  -1   7 41.7567 235.715   6
   0  -1   8 35896.6 4487.67   1
   0   1  -8 21958.7 3200.98   4
   1   0  -7 300.848 500.995   7
  -1   0   7 57725.3 9247.91   1
  -1   0   6 42608.4 2435.74   1
   1   0  -6 41597.7 2059.53   7
   1   0  -6 41689.8 1892.94   4
  -1   0   6 41164.0 2303.70   3
   1   0  -6 41576.0 1925.78   2
  -1   0   6 38919.4 2185.91   6
  -1   0   5 145.044 240.810   3
   1   0  -5 44.1576 138.946   7
   1   0  -5-67.0299 183.948   2
  -1   0   5 100.403 164.663   8
  -1   0   5 215.962 265.612   6
   1   0  -5-285.329 206.531   4
  -1   0   5-152.295 157.590   1
   1   0  -4 994313. 9625.75   7
  -1   0   4 991470. 9519.10   6
   1   0  -4 999999. 9859.30   4
  -1   0   4 965849. 9116.10   8
   1   0  -4 996313. 7700.87  10
  -1   0   4 996915. 10253.1   3
   1   0  -4 992089. 9589.15   2
   1   0  -4 999035. 9755.37   5
  -1   0   4 990612. 10202.9   1
  -1   0   3-102.467 18.2929   1
   1   0  -3-26.1120 91.5047   2
  -1   0   3 91.3384 51.6970   9
  -1   0   3 9.87857 89.4605   3
  -1   0   3 163.331 125.719   8
   1   0  -3 10.6186 41.3210  10
   1   0  -3 31.9514 36.8239   5
   1   0  -3 240.696 143.061   7
   1   0  -3 75.2146 70.5993   4
  -1   0   3 128.608 30.9536   6
  -1   0  -1 161.810 89.3145  10
  -1   0  -1 312.504 119.144  16
  -1   0  -1 27.0987 18.5995  15
  -1   0  -2 25991.7 1060.88  15
  -1   0  -2 27362.4 1087.26  16
  -1   0  -2 30013.7 1257.84   7
   1   0   2 27859.0 1194.30   6
  -1   0  -2 27197.3 1208.57  10
   1   0   2 26756.2 1245.70  11
   1   0   2 26541.9 1050.71  14
  -1   0  -2 25205.6 906.476   4
   1   0   2 25068.6 871.890   1
  -1   0  -3 40.8501 44.0718  10
  -1   0  -3 4.46562 81.0653  15
   1   0   3-207.161 154.430   6
  -1   0  -3 35.0418 55.5504   4
  -1   0  -3 251.763 125.007  16
   1   0   3 15.2987 30.8357  14
  -1   0  -3-42.7675 127.389   7
  -1   0  -3-61.0031 118.861   2
   1   0   3 1.68533 38.3034   3
   1   0   3-41.2307 80.1275   1
   1   0   3-41.3177 102.861  11
  -1   0  -4 17888.3 1251.05  10
   1   0   4 18715.8 1155.02   1
  -1   0  -4 20774.1 1193.71   2
   1   0   4 26103.7 1828.56   3
   1   0   4 19278.2 1311.34  11
   1   0   4 22188.1 1503.59   6
  -1   0  -4 19716.8 1371.48   7
  -1   0  -4 25842.0 1583.21   4
   1   0   5 148.129 267.348  11
   1   0   5-289.884 370.837   6
   1   0   5-74.7095 19.8375   1
  -1   0  -5 246.351 195.626   4
  -1   0  -5-267.372 148.451   7
  -1   0  -5-149.767 226.962  10
  -1   0  -6 43392.1 2763.86   7
  -1   0  -6 45271.7 2819.14  10
   1   0   6 50397.9 3426.05   6
   1   0   6 53719.7 3564.45  11
   1   0   7-1306.34 936.068   6
  -1   0  -7-249.813 420.861   7
  -1  -1   8-643.213 1006.95   3
   1   1  -8-361.994 341.311   4
   1   1  -8-639.730 481.648   2
   1   1  -8-579.009 325.131   7
  -1  -1   8 180.447 750.527   1
  -1  -1   8-405.883 692.128   6
   1   1  -7 12987.0 1691.91   2
  -1  -1   7 15709.4 2090.53   3
  -1  -1   7 12629.2 1867.38   6
   1   1  -7 3528.22 890.619   4
   1   1  -6 29207.9 2033.41   4
  -1  -1   6 32329.3 2228.27   6
   1   1  -6 24525.2 1918.52   7
  -1  -1   6 30636.0 2169.45   3
   1   1  -6 28791.6 1991.49   2
  -1  -1   6 31207.5 2148.94   1
   1   1  -5 8649.82 879.405   5
  -1  -1   5 7922.71 837.191   8
  -1  -1   5 8243.25 971.947   6
   1   1  -5 8153.18 990.444   7
  -1  -1   5 8124.57 977.685   3
  -1  -1   5 8413.75 975.141   1
   1   1  -5 8062.02 964.243   2
   1   1  -5 8317.16 998.458   4
   1   1  -4 16260.2 1212.50   7
   1   1  -4 17318.4 1186.50   5
   1   1  -4 17277.0 1294.59   2
  -1  -1   4 16205.9 1122.75   8
  -1  -1   4 15549.7 1179.93   6
  -1  -1   4 16606.1 1251.99   1
  -1  -1   4 17303.4 1301.41   3
   1   1  -4 16980.0 1253.30   4
  -1  -1   3 17408.5 1082.68   6
   1   1  -3 15559.2 1054.64   4
   1   1  -3 15703.2 1004.03   5
   1   1  -3 15655.7 1004.72   7
   1   1  -3 15536.4 1067.38   2
  -1  -1   3 14767.4 991.250   8
  -1  -1   3 16187.0 1106.16   1
  -1  -1   3 15712.1 1104.46   3
  -1   1  -2 41656.7 1827.59   7
  -1   1  -2 42829.9 1868.71  16
  -1   1  -2 40971.1 1495.06   4
   1  -1   2 38905.9 1680.88   6
  -1   1  -2 42566.0 1864.32  10
  -1   1  -3 123.649 151.864  10
   1  -1   3 4.38727 75.0752   3
  -1   1  -3 87.1676 82.9080  16
  -1   1  -3 26.9375 83.4487   4
  -1   1  -3-66.4817 12.6548   7
   1  -1   3-98.5930 125.870   6
   1  -1   4 70889.8 2829.80   1
  -1   1  -4 70109.7 2421.25   2
  -1   1  -4 73148.2 2445.92   4
  -1   1  -4 81264.0 3049.50   7
   1  -1   4 75374.4 2778.10   6
   1  -1   4 74860.5 2463.21   3
  -1   1  -4 79269.9 2974.20  10
   1  -1   5 16385.2 1435.97   6
  -1   1  -5 15010.4 1422.42   7
   1  -1   5 15799.2 1443.22   1
  -1   1  -5 17272.5 1405.68   4
   1  -1   5 17374.7 1544.76  11
  -1   1  -5 14710.1 1369.54  10
  -1   1  -6-5.71165 179.283  10
  -1   1  -6 336.534 362.189   7
   1  -1   6 171.569 169.484  11
   1  -1   6-93.2307 206.561   6
  -1   1  -7 11971.0 1572.08   7
   1  -1   7 19044.4 2551.23  11
   1  -1   7 16152.4 1983.29   6
  -1   1  -7 16962.1 2559.56  10
  -2   0   6 227776. 7577.37   8
  -2   0   6 226250. 6935.60   1
   2   0  -6 226621. 5918.50   2
   2   0  -6 227343. 4972.97   7
   2   0  -6 227107. 5830.80   4
  -2   0   6 223306. 6966.74   3
   2   0  -5-142.247 263.368   2
   2   0  -5 436.631 354.632   5
  -2   0   5-102.069 203.045   8
  -2   0   5 74.4806 260.773   3
  -2   0   5-255.601 216.058   1
   2   0  -5-136.192 166.188   4
   2   0  -5 7.45416 140.167   7
  -2   0   4 10767.1 1181.27   8
  -2   0   4 11507.5 1208.15   1
   2   0  -4 11104.1 1122.06   2
   2   0  -4 11338.8 1016.09   7
   2   0  -4 8443.84 956.975   4
  -2   0   4 13146.2 1087.81   9
  -2   0   4 11820.5 1230.44   3
   2   0  -4 9836.43 1089.88   5
  -2   0   3-400.751 236.709   8
   2   0  -3-71.4835 23.6671   7
  -2   0   3-210.915 231.583   3
  -2   0   3-198.170 186.176   9
   2   0  -3-114.907 43.0508   5
   2   0  -3-269.446 202.884  12
   2   0  -3-215.646 208.369   4
   2   0  -3-11.3767 74.9289   2
  -2   0   3-271.587 188.772   1
   2   0  -2 228112. 3963.18   5
  -2   0   2 229211. 3701.36   3
  -2   0   2 223494. 3355.34   1
   2   0  -2 220434. 3502.05   2
  -2   0   2 234822. 3967.47   8
  -2   0   2 222630. 2887.28  16
   2   0  -2 211460. 3338.80   4
   2   0  -2 213035. 3644.10  12
  -2   0   2 223097. 3657.79   9
  -2   0   1-9.48700 30.5289   9
   2   0  -1 102.605 59.4392   5
  -2   0   1 46.1853 29.6802  16
  -2   0   1 27.8927 49.3287  15
   2   0  -1 78.3600 66.1764  13
  -2   0   1 33.0975 66.5107   8
   2   0  -1 79.6554 58.9485  12
   2   0   0 27064.8 997.062   5
  -2   0   0 26967.7 1182.55  15
   2   0   0 25591.6 1145.79  12
  -2   0   0 27522.1 966.837   8
  -2   0   0 27236.2 1219.20  16
   2   0   0 27543.5 1231.62  13
  -2   0   0 25242.2 1125.70   9
  -2   0   0 24385.5 966.034  10
  -2   0  -1 190.137 106.213  10
  -2   0  -1 102.024 39.1913   9
  -2   0  -1-9.08452 73.4263  16
  -2   0  -1 78.1414 97.4357  15
  -2   0  -1 5.74308 33.5691   7
   2   0   1 59.5490 60.1611   6
   2   0   1-1.32358 46.1524  12
  -2   0  -2 269308. 3543.61   9
  -2   0  -2 247389. 4230.57  16
  -2   0  -2 257508. 4274.65  15
   2   0   2 254989. 4492.37  11
  -2   0  -2 264850. 3936.08   7
   2   0   2 267027. 4342.45  14
   2   0   2 267295. 3504.93  12
  -2   0  -2 258096. 4495.46  10
   2   0   2 260784. 3912.08   6
  -2   0  -3-43.9296 89.8740  10
  -2   0  -3-10.6986 51.6848  16
  -2   0  -3-54.0496 54.3152  15
   2   0   3 62.7581 7.15231  14
  -2   0  -3 83.3890 140.821   7
   2   0   3 177.552 162.745  13
   2   0   3 143.595 110.387  11
   2   0   3 33.5774 96.8573   6
  -2   0  -4-48.6498 156.178  10
   2   0   4-12.5564 110.662  11
   2   0   4 60.9520 77.7256   6
  -2   0  -4 85.2361 132.856  16
   2   0   4-219.142 95.9669  14
  -2   0  -4-6.58652 186.937   7
  -2   0  -4-125.005 77.7706  15
   2   0   4 23.6189 127.217  13
  -2   0  -5 67.6048 177.199  10
  -2   0  -5-300.670 263.676   7
   2   0   5 119.803 169.369  11
   2   0   5-347.733 254.739   6
  -2   0  -6 66499.0 3865.52   7
   2   0   6 54592.9 4294.94   6
   2   0   6 72108.9 4194.12  11
  -2   0  -6 56020.4 3383.30  10
   2   1  -8 6662.50 1417.79   2
   2   1  -8 5485.47 1308.27   7
   2   1  -8 6255.69 1359.45   4
  -2  -1   8 6412.94 1894.68   6
  -2  -1   8 9511.98 2780.45   1
   2   1  -7 738.181 436.240   2
  -2  -1   7 691.027 420.030   3
  -2  -1   7 73.3252 416.132   1
  -2  -1   7 579.395 383.273   6
   2   1  -7 324.828 222.094   4
   2   1  -7 483.973 233.924   7
   2   1  -6 80436.7 3470.77   5
   2   1  -6 83349.2 3567.11   7
  -2  -1   6 81337.3 3744.16   3
   2   1  -6 72622.6 3385.16   2
   2   1  -6 77693.2 3466.92   4
  -2  -1   6 76204.1 3311.39   8
  -2  -1   6 75864.1 3261.46   6
  -2  -1   6 76294.0 3606.23   1
   2   1  -5 23664.1 1679.94   5
   2   1  -5 22656.5 1674.53   4
   2   1  -5 21093.0 1593.42   2
  -2  -1   5 22335.1 1595.63   8
  -2  -1   5 22880.0 1647.44   1
  -2  -1   5 20952.2 1434.55   6
   2   1  -5 23021.7 1584.38   7
  -2  -1   5 21053.9 1616.18   3
   2   1  -4 433058. 6754.28   5
  -2  -1   4 461394. 5676.98   9
  -2  -1   4 446374. 6551.68   8
  -2  -1   4 450192. 6570.04   1
   2   1  -4 455133. 6667.39   4
   2   1  -4 451542. 6750.60   2
   2   1  -4 442150. 6025.93   7
   2   1  -4 453584. 5405.03  12
  -2  -1   4 449686. 5686.66   6
  -2  -1   4 441164. 6616.53   3
   2   1  -3 23374.3 1407.76   5
  -2  -1   3 21407.9 1149.32   9
  -2  -1   3 24663.1 1419.44   8
   2   1  -3 23898.5 1355.77   4
   2   1  -3 26207.1 1333.52   7
  -2  -1   3 23490.7 1336.96   1
   2   1  -3 24267.6 1389.27   2
  -2  -1   3 23841.2 1097.48   6
  -2  -1   3 23304.4 1327.82   3
   2   1  -2 32308.8 1501.78   5
  -2  -1   2 30014.8 1353.40   9
  -2  -1   2 34312.1 1496.36   1
  -2  -1   2 32117.3 1082.42  15
   2   1  -2 31540.9 1348.40   4
   2   1  -2 31408.2 1367.85   2
  -2  -1   2 33915.5 1555.17   8
  -2  -1   2 30690.7 1299.81   3
  -2  -1   1 33465.5 1433.73   9
   2   1  -1 31763.0 1341.68   5
  -2  -1   1 32185.9 1242.81  15
  -2  -1   1 31201.0 1275.35  16
   2   1  -1 30349.8 1224.20  14
   2   1  -1 31444.4 1051.41   4
  -2  -1   1 29436.9 1294.08   8
  -2  -1   1 31212.4 1056.98   3
  -2  -1   0 145481. 2927.66  15
  -2  -1   0 131932. 2906.96   9
  -2  -1   0 145042. 3061.85  16
   2   1   0 146360. 3054.21  14
  -2  -1   0 143087. 2518.62  10
  -2  -1  -1 332826. 5101.79  15
   2   1   1 331242. 5005.02  14
  -2  -1  -1 343844. 5158.52  16
  -2  -1  -1 340511. 5001.75  10
  -2   1  -2 23615.6 1651.86   9
   2   1   2 16839.5 1550.77  11
  -2   1  -2 18104.5 3150.49  15
  -2   1  -2 19904.1 1602.57  16
  -2  -1  -2 16633.7 1374.21  15
  -2  -1  -2 18818.5 1435.82   7
   2  -1   2 12032.9 1979.67  13
   2  -1   2 15754.5 1147.85   6
  -2  -1  -2 15674.3 1357.71  10
  -2   1  -2 17934.2 1427.42  10
  -2  -1  -3 132120. 4954.54  15
  -2  -1  -3 135036. 5072.85   7
  -2   1  -3 138606. 3954.03   7
  -2   1  -3 119984. 8098.65  15
  -2   1  -3 137329. 3563.86  16
  -2   1  -3 142195. 4152.20  10
   2   1   3 144304. 5610.34  11
   2  -1   3 137112. 3732.88   6
  -2  -1  -3 120569. 5030.98  10
   2  -1   4 77252.7 3109.62   6
   2  -1   4 74574.7 3151.87  11
  -2   1  -4 78916.0 3294.43  10
  -2   1  -5 17301.1 1721.45   7
   2  -1   5 18228.7 1690.94   6
   2  -1   5 18962.0 1724.08  11
  -2   1  -5 17975.6 1696.60  10
  -2   1  -6 487.167 295.815  10
  -2   1  -6 42.6194 308.553   7
   2  -1   6 1241.21 499.230  11
   2  -1   6 688.900 341.323   6
   2  -1   7 1349.83 780.766   6
  -3   0   6 70043.5 1430.14   8
  -3   0   6 70343.9 968.304   1
  -3   0   6 70486.9 1629.27   3
  -3   0   5 103.125 490.713   3
  -3   0   5-450.715 395.873   1
   3   0  -5 1.67681 40.8117   5
  -3   0   5-133.010 85.0444   8
   3   0  -5 113.771 190.108   4
   3   0  -5-93.2322 144.387   2
  -3   0   4 18165.8 1591.68   9
  -3   0   4 14785.7 1768.47   3
  -3   0   4 16834.7 1633.48   8
  -3   0   4 14827.1 1400.86   1
   3   0  -4 15042.0 1388.56   4
   3   0  -4 19995.3 1639.00   2
   3   0  -4 20051.3 1761.73   5
  -3   0   3 147.168 299.086   3
  -3   0   3-100.435 202.142   9
   3   0  -3-72.7758 233.838   5
  -3   0   3 109.233 78.4261   8
   3   0  -3-78.1458 19.5305   4
  -3   0   3-131.882 139.000   1
   3   0  -3 225.831 224.619  12
   3   0  -3 166.014 163.621   2
  -3   0   2 8961.87 900.005   9
   3   0  -2 9839.69 773.066   2
  -3   0   2 10423.9 954.450   8
  -3   0   2 10421.6 768.888   1
  -3   0   2 7812.14 1289.96  15
  -3   0   2 10603.5 868.622  16
   3   0  -2 10339.3 1114.51  13
   3   0  -2 10572.2 979.976  12
   3   0  -2 11418.3 1064.66   5
  -3   0   1 101.572 149.351   9
   3   0  -1-212.122 115.140   5
  -3   0   1 107.902 90.6236  16
  -3   0   1-12.9129 134.113   8
  -3   0   1-179.326 150.923  15
   3   0  -1 30.2994 114.220  13
   3   0  -1 162.986 110.105  12
  -3   0   0 40831.2 1742.63   9
  -3   0   0 40733.9 1822.59  16
  -3   0   0 40197.4 1405.46   8
   3   0   0 42494.2 1857.56  13
   3   0   0 38223.7 1753.66  12
   3   0   0 42697.0 1642.45  11
  -3   0   0 40285.1 1611.28  10
   3   0   0 42352.9 1802.72   5
  -3   0  -1-69.8287 64.5779  10
  -3   0  -1-3.67985 120.073   9
  -3   0  -1-191.454 180.797  16
  -3   0  -1 153.186 186.960  15
   3   0   1 83.1614 131.022  13
   3   0   1-4.71148 77.7237  12
   3   0   1-86.4595 86.7975  11
  -3   0  -2 228045. 4763.26  15
   3   0   2 230212. 4724.63  14
   3   0   2 224186. 4711.85  13
  -3   0  -2 237177. 4891.92  16
   3   0   2 234157. 4820.94  11
  -3   0  -2 234417. 4730.79  10
  -3   0  -3 183.153 20.7416  10
  -3   0  -3-13.2273 181.686  16
  -3   0  -3 44.3249 78.2127  15
   3   0   3-147.608 204.586  14
   3   0   3-360.043 248.012  13
   3   0   3-86.8537 168.587  11
  -3   0  -4 39197.8 2323.84  16
  -3   0  -4 38525.7 2197.44  15
   3   0   4 45957.8 2587.12  14
   3   0   4 39479.1 2259.75  13
   3   0   4 37735.7 2266.08  11
  -3   0  -4 37295.7 2327.32  10
  -3   0  -5 181.894 262.141  10
   3   0   5 7.27356 68.9592  11
   3   0   6 25621.9 2748.89  11
  -3   0  -6 23600.9 2665.09  10
  -3  -1   8 93697.7 9693.69   1
   3   1  -8 65017.2 4865.78   2
   3   1  -7 91.4111 231.395   2
  -3  -1   7 30.0699 286.839   3
  -3  -1   7 39.2962 163.622   1
   3   1  -7 667.156 231.516   5
  -3  -1   7 863.617 779.846   8
   3   1  -7 372.915 129.215   4
   3   1  -6 26013.6 2224.12   5
  -3  -1   6 24339.2 2190.64   8
   3   1  -6 22080.6 2027.55   2
   3   1  -6 18012.2 1743.58   4
  -3  -1   6 23157.3 2010.36   3
  -3  -1   6 25375.9 2222.79   1
   3   1  -5 4428.74 804.278   5
  -3  -1   5 3966.96 686.272   3
   3   1  -5 3784.79 723.366   4
  -3  -1   5 4054.01 710.319   1
   3   1  -5 4480.71 777.121   2
  -3  -1   5 4688.32 784.690   8
   3   1  -4 5628.53 810.232   5
  -3  -1   4 4721.15 674.261   9
  -3  -1   4 5381.87 783.370   8
   3   1  -4 4806.86 704.045   2
  -3  -1   4 4861.27 715.830   1
   3   1  -4 5474.70 719.668  12
  -3  -1   4 4168.24 643.995   3
   3   1  -4 5087.28 699.310   4
   3   1  -3 50546.7 2354.61   5
  -3  -1   3 44496.4 2011.15   9
  -3  -1   3 50245.8 2233.70   8
   3   1  -3 47688.9 1973.26   4
   3   1  -3 48435.1 2042.21   2
   3   1  -3 48770.6 2120.38  12
  -3  -1   3 46799.1 1921.34   3
  -3  -1   3 43306.7 1972.01   1
   3   1  -2 12714.9 1066.38   5
  -3  -1   2 11892.1 999.620   9
  -3  -1   2 10594.4 896.727   1
  -3  -1   2 11656.8 898.942  16
  -3  -1   2 11359.8 836.691  15
   3   1  -2 13153.4 894.955   4
   3   1  -2 10749.6 816.669  14
  -3  -1   2 11813.8 1043.75   8
   3   1  -2 11334.3 827.165   2
  -3  -1   2 13110.0 876.215   3
   3   1  -1 281312. 4646.95   5
  -3  -1   1 278793. 4987.23   9
  -3  -1   1 264866. 4536.55  16
  -3  -1   1 274189. 4587.86   8
  -3  -1   1 279974. 4581.90  15
   3   1  -1 263708. 4534.52  14
   3   1   0 50067.3 2069.70   5
  -3  -1   0 52217.2 2543.81   9
  -3  -1   0 51790.2 2560.91  16
  -3  -1   0 50478.1 2436.62  15
   3   1   0 50422.4 2564.60  14
  -3  -1   0 52472.3 2128.58  10
  -3  -1  -1 83528.1 2892.23   9
  -3  -1  -1 91106.8 3074.81  15
   3   1   1 97761.5 3225.19  14
  -3  -1  -1 88300.8 3125.19  16
   3   1   1 91652.4 3410.38  11
  -3  -1  -1 90869.7 2809.90  10
  -3   1  -2 18410.6 2257.90  16
  -3  -1  -2 15304.1 1401.74  16
  -3  -1  -2 16084.1 1458.89  15
  -3   1  -2 19457.4 4018.68  15
   3   1   2 15573.1 1380.16  14
   3  -1   2 16798.4 2760.46  13
   3   1   2 15625.8 1563.81  11
  -3  -1  -2 17684.3 1448.80  10
  -3  -1  -3 2778.29 723.601  10
  -3   1  -3 2316.51 619.737  10
  -3   1  -3 2441.65 588.502  16
  -3  -1  -3 2468.72 731.656  15
  -3   1  -3 4179.96 1970.29  15
   3   1   3 3051.82 844.803  11
   3  -1   3 2577.00 654.416   6
  -3   1  -4 111990. 4247.52  16
   3  -1   4 97596.8 4122.83  14
   3  -1   4 97091.4 4863.42   6
   3  -1   4 108977. 4670.78  11
  -3   1  -5 925.360 466.982  10
   3  -1   5 1050.77 465.168  11
   4   0  -5 294.673 322.118   2
   4   0  -5 250.400 146.033   5
  -4   0   5 175.126 132.709   9
  -4   0   5-346.578 416.028   8
  -4   0   5-78.7587 113.669   1
   4   0  -4 348.981 251.813   5
  -4   0   4-106.925 162.641   9
  -4   0   4-452.711 298.111   8
   4   0  -4-375.077 683.564  12
   4   0  -4 748.079 405.471   2
  -4   0   3 302.911 226.951   9
   4   0  -3-211.261 320.470   5
  -4   0   3-133.472 243.221   8
   4   0  -3-119.239 172.422  12
  -4   0   2 52361.9 2672.11   9
  -4   0   2 58140.3 2739.08   8
  -4   0   2 49542.3 2405.08  16
  -4   0   2 57887.4 5926.16  15
   4   0  -2 47932.1 3392.81  13
   4   0  -2 57791.9 2875.66  12
   4   0  -2 50214.6 2643.31   5
   4   0  -1 61.3103 128.431   5
  -4   0   1 70.2963 180.744   9
  -4   0   1 64.3313 73.2287   8
  -4   0   1-46.3778 122.373  16
  -4   0   1-281.767 259.967  15
   4   0  -1 118.333 118.330  13
   4   0  -1 16.7548 138.494  12
  -4   0   0 144727. 4033.75   9
  -4   0   0 136507. 4145.30  16
  -4   0   0 133335. 3956.12  15
   4   0   0 128578. 3906.23  13
   4   0   0 145426. 4127.15  12
  -4   0  -1 139.499 235.865  10
  -4   0  -1 70.9735 78.8922   9
  -4   0  -1 71.3043 102.433  16
  -4   0  -1-179.902 273.441  15
   4   0   1 3.00551 84.1545  14
   4   0   1-96.0497 229.926  13
   4   0   1 144.049 104.789  12
   4   0   1-128.644 203.466  11
  -4   0  -2 61923.5 2965.28  15
  -4   0  -2 61824.0 2932.25  16
   4   0   2 60597.4 2842.68  14
   4   0   2 57987.5 2787.67  13
   4   0   2 63767.3 2922.52  11
  -4   0  -2 55992.4 2692.90  10
  -4   0  -3 234.485 275.264  10
  -4   0  -3 137.540 183.123  16
  -4   0  -3-249.042 164.275  15
   4   0   3-487.161 293.146  14
   4   0   3-206.618 287.204  13
   4   0   3-368.469 362.611  11
  -4   0  -4 79667.3 3846.09  16
  -4   0  -4 93521.2 4524.88  15
   4   0   4 78114.0 3809.53  14
   4   0   4 79654.7 3944.24  11
  -4   0  -4 82541.7 4019.93  10
  -4   0  -5-410.058 494.348  10
   4   0   5-181.790 243.676  11
  -4  -1   7 10120.1 2162.59   3
   4   1  -7 8970.18 1642.61   5
   4   1  -7 9771.24 1676.78   4
  -4  -1   7 9598.78 2064.42   8
   4   1  -7 8990.12 1692.38   2
  -4  -1   7 6067.28 1451.14   1
   4   1  -6 1039.88 339.340   2
  -4  -1   6 1649.88 728.956   3
   4   1  -6-47.7222 328.363   5
  -4  -1   6 1849.18 670.550   1
  -4  -1   6 1788.97 766.583   8
   4   1  -6 799.510 358.260   4
   4   1  -5 27365.2 2192.79   5
  -4  -1   5 35667.5 2686.11   9
  -4  -1   5 26403.9 2137.89   8
   4   1  -5 29273.2 2196.74   4
   4   1  -5 30824.2 2363.44   2
   4   1  -5 34138.0 2576.64  12
  -4  -1   5 34797.2 2474.18   3
  -4  -1   5 30948.7 2340.96   1
   4   1  -4 3801.76 737.613   2
  -4  -1   4 3836.14 696.217   3
  -4  -1   4 3834.02 728.529   9
   4   1  -4 3421.59 734.183   5
  -4  -1   4 3830.83 728.709   8
   4   1  -4 2943.36 677.563  12
   4   1  -3 33889.9 2109.36   5
  -4  -1   3 31276.1 1897.32   9
  -4  -1   3 30514.8 1926.83   8
   4   1  -3 30440.0 1974.53  12
   4   1  -2 12140.1 1184.48   5
  -4  -1   2 10531.1 1091.45   9
  -4  -1   2 11499.0 1088.09  16
  -4  -1   2 11939.1 1135.44   8
  -4  -1   2 11829.4 1031.58  15
   4   1  -2 11128.8 1045.76  14
   4   1  -2 12681.4 1108.75  13
   4   1  -2 10440.9 1122.28  12
  -4  -1   1 1825.96 469.294   9
   4   1  -1 2824.26 535.348   5
  -4  -1   1 1641.23 437.549  16
  -4  -1   1 1771.82 391.505   8
  -4  -1   1 2341.14 480.500  15
   4   1  -1 1990.44 472.407  14
   4   1  -1 2148.19 498.771  12
  -4  -1   0 147591. 4211.27  15
  -4  -1   0 152687. 4280.00   9
  -4  -1   0 140081. 4144.21  16
   4   1   0 146063. 4310.25  14
   4   1   0 139327. 3980.28  12
  -4  -1  -1 3842.86 614.818  10
  -4  -1  -1 3619.14 705.611   9
  -4  -1  -1 4261.10 767.432  16
  -4  -1  -1 3760.18 725.834  15
   4   1   1 3761.89 749.397  14
   4   1   1 4432.52 682.646  12
   4   1   1 4377.47 910.546  11
  -4  -1  -2 237296. 6165.73  16
  -4  -1  -2 244155. 6448.65  15
   4   1   2 232923. 6120.81  14
   4   1   2 217563. 7467.39  11
  -4  -1  -2 229067. 5779.17  10
  -4  -1  -3 6389.94 1123.24  10
  -4  -1  -3 6126.05 1310.95  15
  -5   0   4 24487.3 970.258   9
  -5   0   4 24187.6 976.605   8
  -5   0   3 175.563 89.3544   9
  -5   0   3 500.512 527.993   8
   5   0  -3 228.987 361.900  12
  -5   0   2 4635.02 997.410   9
  -5   0   2 3063.03 717.431  16
  -5   0   2 5962.01 1325.41   8
   5   0  -2 7752.38 1344.37  14
   5   0  -2 7277.31 1434.70  12
  -5   0   1 301.596 188.045   9
  -5   0   1 78.6735 341.775  16
  -5   0   1-320.900 664.771  15
   5   0  -1-1019.31 871.124  14
   5   0  -1-2.76096 266.281  13
   5   0  -1 193.625 299.687  12
  -5   0   0 237340. 8070.47   9
  -5   0   0 232243. 8684.81  16
  -5   0   0 233037. 8432.12  15
   5   0   0 232288. 8508.73  14
   5   0   0 237450. 8639.13  13
   5   0   0 235497. 8456.59  12
  -5   0  -1-490.479 342.140   9
  -5   0  -1-69.1341 256.153  16
  -5   0  -1-417.255 414.306  15
   5   0   1 595.077 426.527  14
   5   0   1-126.998 281.918  13
   5   0   1 259.408 115.112  12
  -5   0  -2 58989.2 4437.10  16
  -5   0  -2 58385.4 4582.17  15
   5   0   2 57520.8 4181.43  14
   5   0   2 57850.5 4015.29  13
   5   0   2 57659.3 4642.62  11
  -5   0  -2 56432.5 4038.56  10
  -5   0  -3-139.428 261.648  10
  -5   0  -3-193.561 373.338  16
  -5   0  -3 270.105 442.745  15
   5   0   3 111.456 306.325  14
   5   0   3-532.864 587.250  13
   5   0   3 193.278 288.534  11
  -5   0  -4 21405.8 2718.11  16
  -5   0  -4 51534.1 7615.26  15
   5   0   4 20518.2 2538.37  14
   5   0   4 55345.0 7294.49  13
   5   0   4 43126.1 5332.98  11
  -5   0  -4 25792.7 2980.28  10
   5   1  -6 771.617 419.263   5
  -5  -1   6 91.9354 307.813   8
   5   1  -5 453.673 139.328   5
  -5  -1   5 1520.81 638.238   9
  -5  -1   5 665.774 407.041   8
   5   1  -5 1176.17 588.283  12
   5   1  -4 10436.5 1490.83   5
  -5  -1   4 10079.0 1387.52   9
  -5  -1   4 9496.53 1389.52   8
   5   1  -4 11152.2 1436.22  12
   5   1  -3 6800.46 1087.34   5
  -5  -1   3 6406.69 1024.57   9
  -5  -1   3 6991.34 1108.09   8
   5   1  -3 6796.01 1046.01  12
   5   1  -2 190509. 5269.89   5
  -5  -1   2 181164. 5250.96   9
  -5  -1   2 210602. 5830.38  16
  -5  -1   2 204096. 5718.41   8
  -5  -1   2 208638. 5528.06  15
   5   1  -2 209753. 5671.30  14
   5   1  -2 196826. 5262.66  13
   5   1  -2 201635. 5749.62  12
  -5  -1   1 13382.0 1411.45   9
  -5  -1   1 11001.2 1286.21  16
  -5  -1   1 13191.4 1393.74  15
   5   1  -1 12698.0 1394.97  14
   5   1  -1 13732.9 1497.54  13
   5   1  -1 11198.7 1297.16  12
  -5  -1   0 24485.6 1984.99   9
  -5  -1   0 24293.1 1941.89  16
  -5  -1   0 26222.6 2045.90  15
   5   1   0 24759.8 2002.74  14
   5   1   0 23875.6 2006.84  13
   5   1   0 23542.8 1862.35  12
  -5  -1  -1 3447.47 757.305  16
  -5  -1  -1 4350.06 906.650  15
   5   1   1 3465.69 802.878  14
   5   1   1 4079.48 792.120  13
   5   1   1 4228.34 796.822  12
  -5  -1  -2 8660.64 1336.48  16
  -5  -1  -2 9503.07 1447.62  15
   5   1   2 9464.89 1364.32  14
   5   1   2 10827.3 1426.16  13
  -6   0   1-1770.36 1896.14  16
   6   0  -1-1459.44 1312.09  14
  -6   0   0 6533.32 1822.79  16
  -6   0   0 16589.1 5697.56  15
   6   0   0 12004.0 3228.49  14
   6   0   0 20280.2 4335.87  13
  -6   0  -1-216.360 1677.57  16
  -6   0  -1 61.8828 707.203  15
   6   0   1-163.195 434.092  14
   6   0   1-1596.74 838.300  13
   6   1  -5 2514.22 989.862   5
  -6  -1   5 859.784 469.532   9
  -6  -1   5 1864.00 796.684   8
   6   1  -5 3162.92 1228.69  12
  -6  -1   4 27439.0 2918.47   9
  -6  -1   4 31026.9 3722.14   8
   6   1  -4 37536.6 3455.58   5
  -6  -1   3 977.112 621.468   9
   6   1  -3 2097.22 826.604  12
  -6  -1   2 24791.5 2472.67   9
  -6  -1   2 21870.5 2431.23  16
   6   1  -2 27746.4 2654.84  13
   6   1  -2 24127.3 2447.12  12
  -6  -1   1 1686.52 662.028   9
  -6  -1   1 1773.28 752.705  16
  -6  -1   1 725.482 500.461  15
   6   1  -1-13.9060 227.394  14
   6   1  -1 889.773 506.250  13
   6   1  -1 797.456 276.119  12
  -6  -1   0 17776.4 2260.13   9
  -6  -1   0 19254.7 2149.17  16
  -6  -1   0 19098.6 2200.83  15
   6   1   0 16443.9 2032.56  14
   6   1   0 17215.3 2000.91  13
   6   1   0 17351.8 1998.71  12
  -6  -1  -1 3126.71 924.422  16
  -6  -1  -1 2459.14 777.659  15
   6   1   1 3501.67 979.319  14
   6   1   1 2403.05 803.042  13
   0   0   0    0.00    0.00   0

TITL dimethyl_ether_phase_beta_3_90GPa in P2(1)/c
REM P2(1)/c (#14 in standard setting)
CELL 0.71073   5.527712   6.526867   6.894129  90.0000 103.8687  90.0000
ZERR    4.00   0.000355   0.010167   0.000469   0.0000   0.0063   0.0000
LATT  1
SYMM -x, y+1/2,-z+1/2
SFAC C H O
UNIT 8.00 24.00 4.00
TREF
HKLF 4
END
;
_shelx_hkl_checksum              51044
_olex2_submission_special_instructions 'No special instructions were received'
loop_
_space_group_symop_operation_xyz
'x, y, z'
'-x, y+1/2, -z+1/2'
'-x, -y, -z'
'x, -y-1/2, z-1/2'
loop_
_atom_site_label
_atom_site_type_symbol
_atom_site_fract_x
_atom_site_fract_y
_atom_site_fract_z
_atom_site_U_iso_or_equiv
_atom_site_adp_type
_atom_site_occupancy
_atom_site_site_symmetry_order
_atom_site_calc_flag
_atom_site_refinement_flags_posn
_atom_site_refinement_flags_adp
_atom_site_refinement_flags_occupancy
_atom_site_disorder_assembly
_atom_site_disorder_group
O1 O 0.7270(4) 0.3359(18) 0.1847(3) 0.0310(15) Uiso 1 1 d . . . . .
C1 C 0.9078(7) 0.178(2) 0.2323(6) 0.0309(16) Uiso 1 1 d . . . . .
H11 H 0.910795 0.101871 0.113639 0.046 Uiso 1 1 calc R U . . .
H12 H 0.865988 0.087541 0.329319 0.046 Uiso 1 1 calc R U . . .
H13 H 1.068887 0.236969 0.286165 0.046 Uiso 1 1 calc R U . . .
C2 C 0.4939(7) 0.252(2) 0.0882(6) 0.0278(16) Uiso 1 1 d . . . . .
H22 H 0.504422 0.193813 -0.037492 0.042 Uiso 1 1 calc R U . . .
H23 H 0.369749 0.357747 0.065583 0.042 Uiso 1 1 calc R U . . .
H21 H 0.449139 0.146997 0.170723 0.042 Uiso 1 1 calc R U . . .
loop_
_atom_type_symbol
_atom_type_description
_atom_type_scat_dispersion_real
_atom_type_scat_dispersion_imag
_atom_type_scat_source
C C 0.0033 0.0016 'International Tables Vol C Tables 4.2.6.8 and 6.1.1.4'
H H 0.0000 0.0000 'International Tables Vol C Tables 4.2.6.8 and 6.1.1.4'
O O 0.0106 0.0060 'International Tables Vol C Tables 4.2.6.8 and 6.1.1.4'
loop_
_geom_angle_atom_site_label_1
_geom_angle_atom_site_label_2
_geom_angle_atom_site_label_3
_geom_angle
_geom_angle_site_symmetry_1
_geom_angle_site_symmetry_3
_geom_angle_publ_flag
C2 O1 C1 109.8(12) . . ?
O1 C1 H11 109.5 . . ?
O1 C1 H12 109.5 . . ?
O1 C1 H13 109.5 . . ?
H11 C1 H12 109.5 . . ?
H11 C1 H13 109.5 . . ?
H12 C1 H13 109.5 . . ?
O1 C2 H22 109.5 . . ?
O1 C2 H23 109.5 . . ?
O1 C2 H21 109.5 . . ?
H22 C2 H23 109.5 . . ?
H22 C2 H21 109.5 . . ?
H23 C2 H21 109.5 . . ?
loop_
_geom_bond_atom_site_label_1
_geom_bond_atom_site_label_2
_geom_bond_distance
_geom_bond_site_symmetry_2
_geom_bond_publ_flag
O1 C1 1.419(16) . ?
O1 C2 1.411(9) . ?
C1 H11 0.9600 . ?
C1 H12 0.9600 . ?
C1 H13 0.9600 . ?
C2 H22 0.9600 . ?
C2 H23 0.9600 . ?
C2 H21 0.9600 . ?
