#------------------------------------------------------------------------------
#$Date: 2024-02-05 14:09:55 +0200 (Mon, 05 Feb 2024) $
#$Revision: 289697 $
#$URL: file:///home/coder/svn-repositories/cod/cif/1/57/04/1570440.cif $
#------------------------------------------------------------------------------
#
# This file is available in the Crystallography Open Database (COD),
# http://www.crystallography.net/
#
# All data on this site have been placed in the public domain by the
# contributors.
#
data_1570440
loop_
_publ_author_name
'Sacharczuk, Natalia'
'Olejniczak, Anna'
'Bujak, Maciej'
'Dziubek, Kamil Filip'
'Katrusiak, Andrzej'
'Podsiad&#x142;o, Marcin'
_publ_section_title
;
 Conformation-aggregation interplay in the simplest aliphatic ethers
 probed under high pressure.
;
_journal_issue                   'Pt 1'
_journal_name_full               IUCrJ
_journal_page_first              57
_journal_page_last               61
_journal_paper_doi               10.1107/S2052252523009995
_journal_volume                  11
_journal_year                    2024
_chemical_formula_moiety         'C4 H10 O'
_chemical_formula_sum            'C4 H10 O'
_chemical_formula_weight         74.12
_chemical_name_systematic        'diethyl ether'
_space_group_crystal_system      monoclinic
_space_group_IT_number           14
_space_group_name_Hall           '-P 2ybc'
_space_group_name_H-M_alt        'P 1 21/c 1'
_atom_sites_solution_hydrogens   geom
_atom_sites_solution_primary     dual
_audit_creation_method
;
Olex2 1.5
(compiled 2022.04.07 svn.rca3783a0 for OlexSys, GUI svn.r6498)
;
_cell_angle_alpha                90
_cell_angle_beta                 93.621(3)
_cell_angle_gamma                90
_cell_formula_units_Z            4
_cell_length_a                   6.7948(3)
_cell_length_b                   8.0952(12)
_cell_length_c                   7.7259(2)
_cell_measurement_reflns_used    1468
_cell_measurement_temperature    295(2)
_cell_measurement_theta_max      26.5920
_cell_measurement_theta_min      4.5990
_cell_volume                     424.12(7)
_computing_cell_refinement       'CrysAlisPro 1.171.42.49 (Rigaku OD, 2022)'
_computing_data_collection       'CrysAlisPro 1.171.42.49 (Rigaku OD, 2022)'
_computing_data_reduction        'CrysAlisPro 1.171.42.49 (Rigaku OD, 2022)'
_computing_molecular_graphics    'Olex2 1.5 (Dolomanov et al., 2009)'
_computing_publication_material  'Olex2 1.5 (Dolomanov et al., 2009)'
_computing_structure_refinement  'SHELXL 2018/3 (Sheldrick, 2015)'
_computing_structure_solution    'SHELXT 2018/2 (Sheldrick, 2018)'
_diffrn_ambient_environment      'diamond-anvil cell'
_diffrn_ambient_pressure         2150000
_diffrn_ambient_temperature      295(2)
_diffrn_measured_fraction_theta_full 0.477
_diffrn_measured_fraction_theta_max 0.433
_diffrn_measurement_device_type  'KUMA KM4-CCD, Eos'
_diffrn_measurement_method       '\f- and \w-scans'
_diffrn_radiation_type           MoK\a
_diffrn_radiation_wavelength     0.71073
_diffrn_reflns_av_R_equivalents  0.0250
_diffrn_reflns_av_unetI/netI     0.0155
_diffrn_reflns_Laue_measured_fraction_full 0.477
_diffrn_reflns_Laue_measured_fraction_max 0.433
_diffrn_reflns_limit_h_max       8
_diffrn_reflns_limit_h_min       -8
_diffrn_reflns_limit_k_max       5
_diffrn_reflns_limit_k_min       -5
_diffrn_reflns_limit_l_max       9
_diffrn_reflns_limit_l_min       -9
_diffrn_reflns_number            2208
_diffrn_reflns_point_group_measured_fraction_full 0.477
_diffrn_reflns_point_group_measured_fraction_max 0.433
_diffrn_reflns_theta_full        25.242
_diffrn_reflns_theta_max         26.633
_diffrn_reflns_theta_min         4.622
_exptl_absorpt_coefficient_mu    0.080
_exptl_absorpt_correction_T_max  1.00000
_exptl_absorpt_correction_T_min  0.18287
_exptl_absorpt_correction_type   multi-scan
_exptl_absorpt_process_details
;
CrysAlisPro 1.171.42.49 (Rigaku Oxford Diffraction, 2022)
Empirical absorption correction using spherical harmonics,
implemented in SCALE3 ABSPACK scaling algorithm.
;
_exptl_crystal_colour            colourless
_exptl_crystal_density_diffrn    1.161
_exptl_crystal_description       dosc
_exptl_crystal_F_000             168
_exptl_crystal_size_max          0.38
_exptl_crystal_size_mid          0.34
_exptl_crystal_size_min          0.26
_refine_diff_density_max         0.089
_refine_diff_density_min         -0.091
_refine_diff_density_rms         0.025
_refine_ls_extinction_method     none
_refine_ls_goodness_of_fit_ref   1.168
_refine_ls_hydrogen_treatment    constr
_refine_ls_matrix_type           full
_refine_ls_number_parameters     48
_refine_ls_number_reflns         386
_refine_ls_number_restraints     0
_refine_ls_restrained_S_all      1.168
_refine_ls_R_factor_all          0.0367
_refine_ls_R_factor_gt           0.0327
_refine_ls_shift/su_max          0.000
_refine_ls_shift/su_mean         0.000
_refine_ls_structure_factor_coef Fsqd
_refine_ls_weighting_details
'w=1/[\s^2^(Fo^2^)+(0.0569P)^2^+0.0332P] where P=(Fo^2^+2Fc^2^)/3'
_refine_ls_weighting_scheme      calc
_refine_ls_wR_factor_gt          0.0883
_refine_ls_wR_factor_ref         0.0928
_reflns_Friedel_coverage         0.000
_reflns_number_gt                353
_reflns_number_total             386
_reflns_threshold_expression     'I > 2\s(I)'
_cod_data_source_file            lq5055.cif
_cod_data_source_block           diethyl_ether_phase_beta_2_15GPa
_cod_depositor_comments
'Adding full bibliography for 1570433--1570452.cif.'
_cod_database_code               1570440
_shelx_shelxl_version_number     2018/3
_shelx_space_group_comment
;
The symmetry employed for this shelxl refinement is uniquely defined
by the following loop, which should always be used as a source of
symmetry information in preference to the above space-group names.
They are only intended as comments.
;
_exptl_absorpt_special_details
;
Data were collected at room temperature (295(2) K) and pressure of 2.15(2) GPa
(2150000 kPa).
;
_olex2_refinement_description
;
1. Fixed Uiso
 At 1.2 times of:
  All C(H,H) groups
 At 1.5 times of:
  All C(H,H,H) groups
2.a Secondary CH2 refined with riding coordinates:
 C1(H11,H12), C3(H31,H32)
2.b Idealised Me refined as rotating group:
 C2(H21,H23,H22), C4(H42,H41,H43)
;
_shelx_res_file
;
TITL 5ede_a.res in P2(1)/c
    5ede.res
    created by SHELXL-2018/3 at 12:01:00 on 22-Dec-2022
REM Old TITL 5ede in P2(1)/c
REM SHELXT solution in P2(1)/c: R1 0.164, Rweak 0.361, Alpha 0.108
REM <I/s> 0.389 for 27 systematic absences, Orientation as input
REM Formula found by SHELXT: C4 O
CELL 0.71073 6.7948 8.0952 7.7259 90 93.621 90
ZERR 4 0.0003 0.0012 0.0002 0 0.003 0
LATT 1
SYMM -X,0.5+Y,0.5-Z
SFAC C H O
UNIT 16 40 4

L.S. 50
PLAN  10
CONF
BOND
list 4
fmap 2 53
MORE -1
BOND $H
ACTA
REM <olex2.extras>
REM <HklSrc "%.\\5ede.hkl">
REM </olex2.extras>

WGHT    0.056900    0.033200
FVAR       2.83425
O1    3    0.177301    0.315480    0.167116    11.00000    0.02770    0.03179 =
         0.03687   -0.00407    0.01270   -0.00214
C1    1    0.074669    0.455618    0.230528    11.00000    0.02931    0.02517 =
         0.03009   -0.00120    0.00239    0.00188
AFIX  23
H11   2    0.033284    0.528400    0.135343    11.00000   -1.20000
H12   2    0.160117    0.517092    0.312664    11.00000   -1.20000
AFIX   0
C2    1   -0.102244    0.391889    0.317577    11.00000    0.02980    0.03429 =
         0.03767   -0.00467    0.00886    0.00438
AFIX 137
H21   2   -0.183929    0.328916    0.235931    11.00000   -1.50000
H23   2   -0.176267    0.483315    0.358649    11.00000   -1.50000
H22   2   -0.059370    0.322789    0.413669    11.00000   -1.50000
AFIX   0
C3    1    0.345199    0.368539    0.081073    11.00000    0.02792    0.04359 =
         0.03214    0.00334    0.00884   -0.00189
AFIX  23
H31   2    0.424990    0.442146    0.155577    11.00000   -1.20000
H32   2    0.303901    0.427692   -0.024215    11.00000   -1.20000
AFIX   0
C4    1    0.463331    0.217839    0.037776    11.00000    0.02827    0.04174 =
         0.03450   -0.00436    0.00777   -0.00109
AFIX 137
H42   2    0.384843    0.147670   -0.039303    11.00000   -1.50000
H41   2    0.500664    0.158572    0.142367    11.00000   -1.50000
H43   2    0.579618    0.251431   -0.017272    11.00000   -1.50000
AFIX   0
HKLF 4




REM  5ede_a.res in P2(1)/c
REM wR2 = 0.0928, GooF = S = 1.168, Restrained GooF = 1.168 for all data
REM R1 = 0.0327 for 353 Fo > 4sig(Fo) and 0.0367 for all 386 data
REM 48 parameters refined using 0 restraints

END

WGHT      0.0569      0.0332

REM Highest difference peak  0.089,  deepest hole -0.091,  1-sigma level  0.025
Q1    1   0.3466  0.0535  0.0613  11.00000  0.05    0.09
Q2    1  -0.2219  0.2361  0.3937  11.00000  0.05    0.09
Q3    1   0.2603  0.1659  0.1185  11.00000  0.05    0.08
Q4    1   0.0776  0.1610  0.2249  11.00000  0.05    0.08
Q5    1  -0.0095  0.5390  0.1892  11.00000  0.05    0.08
Q6    1  -0.2013  0.3487  0.2929  11.00000  0.05    0.08
Q7    1   0.4429  0.1638 -0.0028  11.00000  0.05    0.08
Q8    1   0.5021  0.2461 -0.0609  11.00000  0.05    0.08
Q9    1  -0.3220  0.4549  0.3425  11.00000  0.05    0.07
Q10   1  -0.1964  0.5517  0.3258  11.00000  0.05    0.07
;
_shelx_res_checksum              44388
_shelx_hkl_file
;
   0   0  -2 1937.54   21.17
   0   0   2 1848.89   20.85
   0   0  -2 1854.42   21.13
   0   0   2 1962.83   21.19
   0   0   2 1864.14   21.23
   0   0  -2 1877.06   20.95
   0   0   3    1.09    0.80
   0   0  -3   -0.91    0.96
   0   0  -3   -0.09    0.93
   0   0   3    0.19    0.88
   0   0  -3    0.26    0.71
   0   0  -3    0.17    0.88
   0   0   3    1.14    0.95
   0   0   3    0.18    0.65
   0   0   3    1.06    0.77
   0   0  -4    0.99    1.48
   0   0   4    1.44    1.04
   0   0  -4   -0.95    1.62
   0   0  -4    0.99    1.48
   0   0   4    1.60    1.40
   0   0   4    0.15    1.16
   0   0   4    4.44    1.73
   0   0   4    0.21    1.24
   0   0   5    0.77    1.95
   0   0   5   -0.48    1.55
   0   0   5   -0.39    1.80
   0   0  -5    0.88    1.89
   0   0  -5   -1.89    1.85
   0   0  -5    1.25    1.80
   0   0   5   -1.94    1.41
   0   0   6  178.12   10.19
   0   0  -6  181.33   10.26
   0   0   6  171.12   10.20
   0   0   6  162.32    9.63
   0   0  -6  179.46    9.88
   0   0  -6  164.38    9.33
   0   0  -7    0.25    3.22
   0   0   7   -0.44    2.90
   0   0   7    5.78    4.28
   0   0  -7    5.02    3.40
   0   1  -2 7190.13   58.06
   0   1  -2 6920.11   58.87
   0   1  -2 7109.38   57.35
   0   1  -2 6951.03   57.28
   0  -1   2 7044.16   57.59
   0  -1   2 7034.70   58.62
   0  -1   2 7248.94   58.13
   0   1  -3   69.31    3.22
   0   1  -3   69.76    3.76
   0   1  -3   71.64    4.37
   0  -1   3   70.95    3.71
   0  -1   3   69.34    4.13
   0   1  -3   66.53    3.94
   0  -1   3   78.75    3.60
   0  -1   3   64.31    3.95
   0   1  -3   71.99    4.24
   0  -1   3   71.44    4.27
   0  -1   4   39.33    3.82
   0   1  -4   41.55    3.71
   0   1  -4   45.17    3.84
   0  -1   4   43.39    3.89
   0   1  -4   40.42    3.30
   0   1  -4   45.23    3.21
   0  -1   4   49.73    3.55
   0  -1   4   42.31    3.82
   0   1  -4   47.07    4.10
   0  -1   4   43.72    3.44
   0   1  -5   61.53    5.19
   0  -1   5   61.85    4.67
   0  -1   5   60.89    5.29
   0  -1   5   59.21    5.04
   0   1  -5   60.65    4.19
   0  -1   5   61.32    5.17
   0   1  -5   59.85    5.34
   0   1  -5   58.94    4.97
   0  -1   5   64.59    4.80
   0   1  -5   59.59    4.47
   0  -1   6  143.13    8.81
   0   1  -6  144.58    8.89
   0   1  -6  129.93    8.26
   0  -1   6  144.75    8.82
   0  -1   6  136.26    8.60
   0   1  -6  143.72    9.02
   0  -1   7   94.04    8.43
   0   1  -7   91.43    8.45
   0   1  -7   77.85    7.18
   0  -1   7   87.58    8.06
   0  -1   7   86.48    7.79
   0   1  -7   91.92    8.13
   0  -1   8   63.33    8.02
   0  -1   8   67.70    7.66
   0   1  -8   52.12    6.87
   0  -1   8   71.57    8.27
   0   1  -8   63.55    8.14
   0   1  -8   69.88    7.68
   0  -1   9   46.94    8.27
   0   1  -9   54.53    8.85
   0   1  -9   53.93    7.93
   0   2  -2 3833.22   53.38
   0  -2   2 3935.25   39.22
   0  -2   3    5.22    1.51
   0   2  -3    6.38    1.68
   0   2  -3    8.92    1.38
   0  -2   3    5.36    1.11
   0   2  -3    7.77    1.57
   0   2  -3    7.08    1.59
   0  -2   3    6.66    1.78
   0  -2   3    7.10    1.67
   0   2  -3    7.13    1.83
   0  -2   3    6.08    1.60
   0   2  -4  119.74    5.99
   0   2  -4  103.98    6.13
   0  -2   4  108.43    6.32
   0   2  -4  109.85    6.13
   0   2  -4  115.35    5.46
   0   2  -4  111.76    6.61
   0  -2   4  107.46    5.98
   0  -2   4  114.77    5.05
   0  -2   4  107.06    6.26
   0  -2   4  112.19    5.99
   0   2  -5  130.74    7.53
   0  -2   5  138.31    8.22
   0  -2   5  136.46    7.80
   0   2  -5  139.35    7.11
   0  -2   5  127.62    7.63
   0   2  -5  134.55    8.12
   0   2  -5  127.64    7.50
   0  -2   5  132.38    7.14
   0   2  -6  309.38   12.95
   0  -2   6  312.23   13.11
   0  -2   6  341.68   14.02
   0  -2   6  334.23   13.64
   0   2  -6  319.03   13.10
   0   2  -6  305.87   13.53
   0  -2   7   36.33    5.22
   0   2  -7   36.21    5.51
   0  -2   7   41.08    6.04
   0  -2   7   32.62    5.05
   0   2  -7   41.86    5.76
   0   2  -7   44.60    5.99
   0   2  -8   90.97    8.85
   0   2  -8   95.62    8.83
   0  -2   8   95.53    9.02
   0  -2   8   94.68    9.11
   0  -2   8   83.60    8.76
   0   2  -8   99.32    9.13
   0  -2   9  133.15   12.01
   0   2  -9  119.24   11.11
   0  -2   9  139.45   12.26
   0   2  -9  108.62   10.15
   0   2  -9  122.13   11.31
   0  -2   9  132.26   12.05
   0   3  -4  242.46   11.14
   0   3  -4  225.02   10.50
   0  -3   4  275.41   11.36
   0   3  -4  286.28   11.75
   0  -3   4  237.66   10.22
   0  -3   4  231.80   10.69
   0   3  -5  103.25    6.69
   0  -3   5   99.26    7.15
   0   3  -5  102.32    7.20
   0  -3   5  103.30    7.33
   0   3  -5   89.65    6.98
   0  -3   5   97.81    6.95
   0   3  -5   95.66    7.09
   0  -3   5  102.74    7.46
   0   3  -6   92.05    7.79
   0  -3   6  108.25    8.47
   0  -3   6  121.76    8.67
   0   3  -6   97.57    7.64
   0   3  -6  113.22    8.32
   0  -3   6  113.81    8.42
   0   3  -6  110.92    7.32
   0  -3   7   22.90    4.81
   0   3  -7   23.77    5.26
   0  -3   7   23.68    4.45
   0   3  -7   24.55    5.29
   0  -3   7   27.47    4.99
   0   3  -7   19.36    3.87
   0   3  -8  400.53   18.58
   0  -3   8  415.77   19.14
   0   3  -8  387.90   17.89
   0  -3   8  413.63   18.89
   0   3  -8  413.29   18.94
   0  -3   8  404.95   18.47
   0  -3   9   74.37    9.32
   0  -3   9   69.08    8.96
   0   3  -9   70.75    9.02
   0  -4   6   -0.82    3.13
   0  -4   6    3.52    3.13
   0   4  -6   -3.79    4.04
   0   4  -6    4.26    3.59
   0  -4   7   42.85    7.21
   0  -4   7   49.15    7.34
   0   4  -7   32.30    5.81
   0  -4   7   43.23    7.17
   0  -4   8  106.21   11.54
   0   4  -8   93.55    9.67
   0  -4   8  112.82   11.30
   0  -4   8  100.22   10.46
   1   0  -5   -2.56    1.89
  -1   0   5   -0.30    1.49
   1   0  -5   -3.89    2.38
  -1   0   5    1.39    1.75
   1   0  -5    0.85    2.06
  -1   0   5   -2.45    2.32
   1   0  -4 1283.99   22.36
  -1   0   4 1211.61   20.53
   1   0  -4 1261.95   22.86
  -1   0   4 1280.19   22.91
   1   0  -4 1254.63   21.98
  -1   0   4 1224.75   22.67
   1   0  -3    0.75    0.79
  -1   0   3   -1.16    1.37
  -1   0   3    1.35    1.05
   1   0  -3   -0.23    0.82
   1   0  -3    1.27    1.15
  -1   0   2  628.43   11.45
   1   0  -2  616.97   11.43
  -1   0   2  641.26   11.69
   1   0  -2  630.47   11.21
   1   0  -2  606.34   11.15
   1   0   3    0.18    0.86
  -1   0  -3    0.68    0.76
   1   0   3    0.14    0.81
  -1   0  -3    0.90    0.92
  -1   0  -3    3.68    1.55
   1   0   3    2.17    1.10
  -1   0  -3    0.62    1.09
   1   0   3    1.00    0.96
   1   0   3   -0.92    0.81
   1   0   3   -0.29    1.11
   1   0   4  641.23   10.97
  -1   0  -4  665.84   14.70
   1   0   4  632.83   14.27
  -1   0  -4  614.26   14.86
  -1   0  -4  632.50   14.50
   1   0   4  654.30   15.20
   1   0   4  629.38   15.12
   1   0   4  651.04   14.52
  -1   0  -5   -3.82    2.10
   1   0   5   -2.26    1.82
  -1   0  -5   -2.57    1.92
  -1   0  -5    0.36    1.65
   1   0   5    3.73    2.12
   1   0   5    1.95    1.97
   1   0   5   -1.84    1.88
   1   0   6   -1.50    2.66
  -1   0  -6    0.94    1.95
   1   0   6    1.56    2.27
   1   0   6    0.71    2.04
  -1   0  -6    1.00    2.67
  -1   0  -6   -0.51    2.60
   1   0   6   -1.99    2.35
  -1   0  -7   -1.51    2.39
  -1   0  -7   -4.51    3.33
   1   0   7    1.74    3.08
   1   0   7    1.63    3.03
   1   0   7    0.65    3.10
   1   0   8   -5.87    4.70
  -1   0  -8    1.44    4.14
   1   0   8   -4.38    4.38
  -1   0  -8    2.70    4.19
  -1  -1   8    3.05    4.75
   1   1  -8   -0.73    3.64
  -1  -1   8    2.20    3.47
   1   1  -8   -2.85    4.10
   1   1  -8   -1.26    3.75
  -1  -1   7   37.15    4.78
   1   1  -7   52.78    6.63
  -1  -1   7   44.09    5.47
   1   1  -7   51.75    6.12
   1   1  -7   49.95    5.57
  -1  -1   7   53.49    6.73
   1   1  -6  356.89   13.98
  -1  -1   6  341.64   12.79
  -1  -1   6  330.18   13.66
   1   1  -6  344.01   12.78
   1   1  -6  332.44   12.75
  -1  -1   6  304.91   13.20
  -1  -1   6  332.60   13.68
   1   1  -6  343.62   14.24
   1   1  -5  158.35    8.54
  -1  -1   5  153.12    8.04
   1   1  -5  156.86    7.81
   1   1  -5  167.56    8.59
  -1  -1   5  146.51    7.43
   1   1  -5  155.17    7.58
  -1  -1   5  161.77    8.68
  -1  -1   5  153.77    8.40
   1   1  -4  225.60    7.23
  -1  -1   4  215.97    8.18
  -1  -1   4  226.33    8.92
   1   1  -4  235.94    8.40
   1   1  -4  238.04    9.07
  -1  -1   4  209.10    8.19
   1   1  -4  234.10    9.20
   1   1  -4  236.13    8.36
  -1  -1   4  222.22    8.76
   1   1  -3  199.03    7.18
  -1  -1   3  187.58    6.54
  -1  -1   3  185.95    7.10
   1   1  -3  194.32    6.31
  -1  -1   3  197.08    7.28
   1   1  -3  199.77    7.39
   1   1  -3  188.99    6.80
  -1  -1   3  200.00    6.97
   1   1  -3  196.32    5.75
   1   1  -2 1909.78   20.54
  -1  -1   2 1871.54   22.14
   1   1  -2 1941.65   22.20
   1   1  -2 1911.17   22.32
   1   1  -2 1857.17   22.22
  -1  -1   2 1924.79   22.27
  -1  -1   2 1862.66   22.19
  -1  -1   1  856.03   11.85
  -1  -1  -1 2227.51   23.48
   1  -1   2  736.33   13.15
  -1   1  -2  675.01   12.61
   1  -1   2  736.51   12.43
   1   1   2  716.20   12.58
   1   1   2  699.29   13.26
   1   1   2  649.43   16.83
   1  -1   2  746.81   12.82
   1  -1   2  695.49   12.16
   1   1   2  743.36   13.33
  -1   1  -2  722.60   12.76
  -1   1  -2  723.16   12.41
  -1   1  -2  698.68   12.12
  -1   1  -3    0.53    0.73
  -1   1  -3    1.34    0.93
   1  -1   3   -0.02    0.92
  -1   1  -3   -0.20    1.01
   1  -1   3    0.47    0.93
   1  -1   3    0.93    0.91
  -1   1  -3    0.45    1.13
   1  -1   3    0.98    0.97
   1  -1   3   -0.15    1.23
   1   1   3    0.66    1.35
  -1   1  -3   -0.39    1.09
   1   1   3    1.25    1.02
   1   1   3    0.75    1.06
  -1  -1  -3    1.26    1.15
   1   1   3    0.79    0.94
  -1  -1  -3    0.36    0.93
  -1  -1  -4 2197.79   32.25
  -1   1  -4 2207.25   28.81
   1   1   4 2261.51   31.07
  -1   1  -4 2269.52   25.78
  -1   1  -4 2337.89   31.95
  -1   1  -4 2069.79   29.23
   1  -1   4 2252.60   30.69
   1   1   4 2147.38   35.14
   1  -1   4 2201.00   29.16
   1  -1   4 2215.32   31.61
   1   1   4 2233.28   33.17
   1   1   4 2211.86   28.24
   1  -1   4 2246.48   30.81
  -1  -1  -4 2219.52   31.41
   1  -1   4 2210.79   26.02
  -1   1  -4 2221.47   31.18
   1  -1   5    2.89    1.83
  -1   1  -5    4.20    1.94
  -1   1  -5    5.39    2.35
  -1  -1  -5    3.76    2.11
   1   1   5    8.14    2.71
  -1  -1  -5    4.42    1.89
   1   1   5    1.40    1.88
   1  -1   5    5.71    2.09
  -1   1  -5    6.73    2.36
  -1   1  -5    7.80    2.74
   1  -1   5    4.37    2.25
   1  -1   5   10.34    2.65
  -1   1  -6   64.68    6.02
  -1   1  -6   74.07    6.31
   1  -1   6   70.44    5.91
   1  -1   6   69.48    6.54
  -1   1  -6   67.10    5.48
   1  -1   6   71.46    6.38
  -1   1  -6   74.64    6.76
   1  -1   6   70.69    6.32
   1  -1   7   17.61    4.06
   1  -1   7   22.49    4.51
  -1   1  -7   21.78    4.57
  -1   1  -7   28.09    4.84
  -1   1  -7   31.20    5.29
   1  -1   7   22.66    4.77
   1  -1   8   74.37    8.16
  -1   1  -8   74.14    7.86
  -1   1  -8   77.50    8.45
  -1   1  -8   86.01    8.54
   1  -1   8   72.90    7.83
   1  -1   8   70.95    8.15
   1  -1   9   40.28    6.90
  -1   1  -9   56.31    8.52
  -1   1  -9   60.76    9.75
  -1   1  -9   50.07    7.29
   1  -1   9   54.29    8.10
   1  -1   9   50.40    7.49
   1   2  -9  116.33   10.86
  -1  -2   9  121.07   13.68
  -1  -2   9  113.50   11.17
  -1  -2   9  121.91   11.33
   1   2  -9  134.09   12.82
   1   2  -9  107.99    9.95
  -1  -2   8   64.27    7.58
   1   2  -8   63.67    7.91
  -1  -2   8   58.39    7.54
   1   2  -8   65.49    7.75
   1   2  -8   66.07    7.85
  -1  -2   8   60.39    7.53
   1   2  -7  365.45   16.31
   1   2  -7  426.27   16.05
  -1  -2   7  411.61   17.18
   1   2  -7  417.11   15.37
  -1  -2   7  416.16   17.02
  -1  -2   7  407.04   16.46
   1   2  -7  438.23   17.86
  -1  -2   7  409.33   15.44
  -1  -2   6  114.47    7.58
  -1  -2   6  109.94    8.03
   1   2  -6  101.06    8.23
  -1  -2   6  105.02    7.87
  -1  -2   6  103.81    7.53
   1   2  -6  110.68    7.33
   1   2  -6  106.36    7.16
   1   2  -6  107.45    8.03
  -1  -2   5  222.30    9.65
   1   2  -5  205.02    9.82
  -1  -2   5  192.13    9.74
   1   2  -5  203.46   10.07
   1   2  -5  191.32    8.69
  -1  -2   5  217.61    9.57
   1   2  -5  218.40    9.44
  -1  -2   5  207.00    9.86
   1   2  -4 1429.13   24.42
  -1  -2   4 1498.38   24.67
  -1  -2   4 1553.93   25.87
  -1  -2   4 1559.18   21.61
   1   2  -4 1616.32   26.13
  -1  -2   4 1527.79   25.82
   1   2  -4 1556.97   20.90
   1   2  -4 1456.04   23.02
  -1  -2   4 1475.46   23.90
   1   2  -4 1611.91   26.95
  -1  -2   3  602.03   13.70
  -1  -2   3  655.91   14.09
   1   2  -3  638.09   12.16
   1   2  -3  634.89   13.91
   1   2  -3  638.77   12.88
   1   2  -3  652.93   14.46
  -1  -2   3  643.59   12.87
  -1  -2   3  665.99   12.87
   1   2  -3  649.69   14.20
  -1  -2   3  616.22   14.08
   1   2  -2  289.18    7.83
  -1  -2   2  315.67    8.41
  -1  -2   2  299.87    7.12
   1   2  -2  307.31    8.44
  -1  -2   2  302.04    8.66
  -1  -2   2  302.69    8.62
   1   2  -2  306.35    8.51
  -1  -2   2  305.59    8.57
   1   2  -2  304.97    9.10
  -1  -2   1   -0.26    0.91
   1   2  -1    0.05    0.86
  -1  -2   1   -0.75    0.77
   1  -2   3 6087.91   60.91
   1  -2   3 5966.26   63.18
  -1   2  -3 6188.86   61.13
   1  -2   3 6318.44   58.53
  -1   2  -3 6150.39   62.75
  -1   2  -3 6133.47   60.85
   1  -2   3 6164.92   60.47
  -1   2  -4  562.99   14.98
  -1   2  -4  644.67   15.06
   1  -2   4  566.43   14.52
  -1   2  -4  593.90   13.16
   1  -2   4  560.96   13.30
   1  -2   4  554.08   14.94
   1  -2   4  590.54   15.50
  -1   2  -4  520.74   13.80
  -1   2  -4  638.07   16.17
   1  -2   5    4.05    2.03
   1  -2   5    1.28    1.63
  -1   2  -5    0.73    2.01
  -1   2  -5    0.55    1.74
   1  -2   5    3.51    2.27
  -1   2  -5   -0.52    2.36
  -1   2  -5    1.83    2.03
   1  -2   5   -3.25    2.37
   1  -2   6   71.28    6.82
  -1   2  -6   67.33    6.40
   1  -2   6   66.20    6.39
   1  -2   6   74.33    6.75
  -1   2  -6   67.99    6.21
  -1   2  -6   67.80    6.55
   1  -2   7   52.34    6.27
   1  -2   7   56.39    6.66
   1  -2   7   56.48    6.67
  -1   2  -7   54.66    6.50
  -1   2  -7   47.66    6.05
  -1   2  -7   53.80    6.26
  -1   2  -8  102.26    9.19
  -1   2  -8  112.10    9.72
   1  -2   8  113.01    9.61
   1  -2   8  118.59   10.59
  -1   2  -8  101.44    9.29
   1  -2   8   88.68    8.99
   1  -2   9    7.90    4.76
   1  -2   9   10.46    4.93
  -1   2  -9    4.18    4.27
  -1   2  -9   10.46    4.75
   1  -2   9   10.31    5.13
   1   3  -8   30.91    5.75
  -1  -3   8   28.29    5.48
  -1  -3   8   37.74    6.34
   1   3  -8   30.24    6.08
  -1  -3   8   32.21    6.04
   1   3  -7  370.55   16.42
   1   3  -7  315.90   13.83
   1   3  -7  344.50   14.53
  -1  -3   7  349.80   16.10
  -1  -3   7  340.68   15.48
  -1  -3   7  291.30   14.90
   1   3  -7  355.25   16.07
  -1  -3   7  366.57   15.48
  -1  -3   6 1024.17   25.75
   1   3  -6 1017.47   23.28
  -1  -3   6 1019.57   24.51
   1   3  -6 1136.43   26.74
   1   3  -6 1086.30   25.99
   1   3  -6 1018.81   24.09
  -1  -3   6 1056.68   26.24
  -1  -3   6 1093.49   25.54
   1   3  -5  109.24    7.59
  -1  -3   5  104.25    7.37
  -1  -3   5  111.01    7.07
   1   3  -5   92.82    6.59
  -1  -3   5  102.72    7.38
   1   3  -5  105.96    6.72
   1   3  -5  105.30    7.44
  -1  -3   5  104.47    7.19
  -1  -3   4  198.93    9.28
   1   3  -4  186.69    8.78
   1   3  -4  183.53    8.85
  -1  -3   4  193.00    9.09
   1   3  -4  194.63    7.44
   1   3  -4  184.22    8.75
  -1  -3   4  191.89    9.25
   1   3  -4  201.69    9.23
  -1  -3   4  193.56    8.29
  -1  -3   3 1060.91   21.60
   1   3  -3 1106.03   21.27
  -1  -3   3 1054.95   21.38
   1   3  -3 1068.43   22.19
  -1  -3   3 1025.37   21.80
  -1  -3   3 1038.45   19.10
   1   3  -3 1048.62   21.54
  -1   3  -5  370.07   14.07
  -1   3  -5  408.54   15.77
   1  -3   5  425.00   15.52
   1  -3   5  380.95   14.21
   1  -3   5  397.90   16.31
  -1   3  -6   58.10    6.77
   1  -3   6   70.86    7.53
   1  -3   6   52.93    5.68
  -1   3  -6   59.45    7.21
  -1   3  -6   55.70    6.14
   1  -3   6   63.79    6.70
   1  -3   7   32.17    5.82
   1  -3   7   33.28    5.61
   1  -3   7   29.39    5.58
  -1   3  -7   34.13    5.97
  -1   3  -7   33.17    5.63
  -1   3  -7   24.16    4.90
  -1   3  -8   33.59    6.07
   1  -3   8   42.12    7.10
  -1   3  -8   40.11    6.57
  -1   3  -8   45.79    7.32
   1  -3   8   39.71    6.64
   1  -3   8   46.46    7.33
   1  -3   9    6.32    4.78
  -1  -4   8   63.08    8.07
   1   4  -8   77.61    9.35
  -1  -4   8   82.23    9.81
   1   4  -8   76.99    9.62
   1   4  -7   35.96    6.26
   1   4  -7   37.22    5.97
   1   4  -7   34.80    6.93
  -1  -4   7   44.55    7.20
  -1  -4   7   36.69    6.30
  -1  -4   7   35.47    6.50
  -1  -4   6  324.74   15.87
  -1  -4   6  364.67   17.21
   1   4  -6  343.50   16.60
   1   4  -6  318.90   15.07
  -1  -4   6  366.80   16.28
  -1  -4   6  318.83   15.51
   1   4  -6  356.90   16.55
  -1  -4   5  113.38    9.23
  -1  -4   5  117.46    9.18
  -1  -4   5  132.21    8.97
   1   4  -5  105.90    9.36
   1   4  -5  114.59    9.74
   1   4  -4   40.37   10.58
   1   4  -4   28.28    7.91
   2   0  -1    0.30    0.87
  -2   0   0  945.20   14.80
  -2   0   0 1014.26   14.88
   2   0   0  975.50   14.45
   2   0   0 1014.22   14.57
   2   0   0  961.28   14.62
  -2   0  -1    0.08    0.53
   2   0   1    0.50    0.71
  -2   0  -1   -0.37    0.79
  -2   0  -1   -0.25    0.82
   2   0   1    0.67    0.64
   2   0   1    0.57    0.60
   2   0   1    0.51    0.74
  -2   0  -2  552.21   11.99
   2   0   2  575.47   11.60
  -2   0  -2  567.23   11.52
   2   0   2  554.79   11.96
   2   0   2  573.90   11.37
   2   0   2  544.46   11.45
   2   0   2  516.11    9.33
  -2   0  -2  535.98   10.99
  -2   0  -3   -3.81    1.96
   2   0   3   -1.83    1.64
  -2   0  -3   -1.11    1.19
   2   0   3   -0.96    1.30
   2   0   3   -2.46    1.89
  -2   0  -3   -1.90    1.72
  -2   0  -3   -1.78    1.76
   2   0   3   -0.98    1.52
   2   0   3   -0.60    1.33
   2   0   3   -2.76    1.45
  -2   0  -3   -1.58    1.19
  -2   0  -4 9999.00   82.44
  -2   0  -4 9750.09   88.66
   2   0   4 9770.52   84.38
  -2   0  -4 9946.89   85.32
  -2   0  -4 9867.51   88.55
   2   0   4 9793.66   83.97
   2   0   4 9733.74   89.16
  -2   0  -4 9503.18   83.43
   2   0   4 9924.84   89.07
   2   0   4 9728.32   83.28
   2   0   4 9866.43   81.86
  -2   0  -4 9800.34   81.82
   2   0   5   -0.29    1.66
  -2   0  -5    0.93    2.28
  -2   0  -5   -2.51    2.02
  -2   0  -5   -0.04    1.82
   2   0   5    2.01    1.96
   2   0   5   -1.60    1.91
   2   0   5   -2.27    2.14
  -2   0  -5   -1.00    2.24
  -2   0  -6  200.92    9.96
  -2   0  -6  209.13   10.50
   2   0   6  198.95    9.99
  -2   0  -6  197.52   10.75
   2   0   6  210.35   11.00
   2   0   6  207.35   11.14
   2   0   7   -1.78    3.68
  -2   0  -7    7.03    3.96
   2   0   7   -1.24    3.16
  -2   0  -7    0.69    3.10
  -2   0  -8    4.92    4.14
   2   0   8   -2.99    4.38
  -2  -1   7   64.26    7.29
  -2  -1   7   55.17    6.64
  -2  -1   7   61.43    6.67
   2   1  -7   53.38    6.31
   2   1  -7   62.99    7.04
   2   1  -7   62.86    5.94
  -2  -1   6   36.82    5.21
   2   1  -6   38.15    5.13
  -2  -1   6   31.71    4.45
  -2  -1   6   32.07    5.00
   2   1  -6   36.95    4.92
   2   1  -6   41.10    4.99
   2   1  -6   40.41    4.45
  -2  -1   5   46.29    4.81
   2   1  -5   35.96    4.14
   2   1  -5   46.50    4.16
  -2  -1   5   41.32    4.66
  -2  -1   5   38.14    4.58
   2   1  -5   46.60    4.89
   2   1  -5   45.44    4.89
   2   1  -4 1262.90   22.49
  -2  -1   4 1304.99   23.28
  -2  -1   4 1290.79   23.28
   2   1  -4 1304.57   22.45
   2   1  -4 1306.23   19.97
   2   1  -4 1283.28   22.90
  -2  -1   4 1218.46   23.05
  -2  -1   4 1202.53   24.32
   2   1  -4 1276.01   22.91
   2   1  -3 1486.52   22.39
  -2  -1   3 1445.45   22.10
   2   1  -3 1433.65   21.88
   2   1  -3 1457.53   21.36
  -2  -1   3 1469.80   22.74
   2   1  -3 1460.47   18.64
  -2  -1   3 1439.14   22.59
   2   1  -3 1459.09   22.47
   2   1  -2  248.47    7.04
   2   1  -2  253.90    6.37
  -2  -1   2  257.89    6.47
  -2  -1   2  244.52    7.16
  -2  -1   2  254.64    7.80
   2   1  -2  247.46    7.57
   2   1  -2  255.67    6.12
   2   1  -2  265.69    7.41
  -2  -1   2  256.72    7.18
   2   1  -2  263.87    7.97
  -2  -1   1  401.68    8.37
  -2  -1   1  424.98    9.14
   2   1  -1  421.22    8.79
   2   1  -1  424.12    9.39
   2   1  -1  421.89    8.48
   2   1  -1  430.69    9.02
   2   1   0  919.89   14.03
   2   1   0  906.53   13.88
   2   1   0  910.26   13.98
   2   1   1  847.12   14.25
   2   1   1  851.38   12.91
  -2  -1  -1  870.02   14.59
   2   1   1  877.58   14.03
  -2  -1  -1  893.25   13.49
   2   1   1  819.44   14.26
   2   1   2 3647.68   38.32
   2  -1   2 3697.50   39.58
   2   1   2 3668.64   33.32
   2   1   2 3631.09   38.72
  -2   1  -2 3605.06   39.50
  -2  -1  -2 3537.34   34.73
   2  -1   2 3594.94   39.34
  -2  -1  -2 3568.68   35.87
  -2  -1  -2 3440.17   37.44
   2   1   2 3634.62   36.15
   2  -1   2 3673.32   38.07
  -2   1  -2 3671.12   39.90
   2   1   2 3598.17   37.43
   2  -1   3  943.79   17.92
   2  -1   3  806.83   15.07
  -2   1  -3  826.46   16.71
   2  -1   3  843.32   17.44
   2   1   3  844.46   15.79
   2  -1   3  833.98   15.26
  -2   1  -3  869.75   17.37
   2   1   3  865.08   13.75
  -2  -1  -3  873.67   17.02
  -2  -1  -3  862.98   16.57
   2   1   3  861.56   17.64
   2   1   3  842.91   16.57
   2   1   3  836.17   16.46
  -2   1  -3  806.21   14.97
  -2  -1  -3  876.94   14.16
   2  -1   3  860.36   17.28
  -2  -1  -4  439.93   13.17
  -2   1  -4  437.84   12.92
   2  -1   4  472.79   11.14
   2   1   4  439.52   11.31
   2  -1   4  462.22   12.86
   2   1   4  438.37   13.67
  -2  -1  -4  455.09   11.68
  -2   1  -4  454.60   13.80
   2  -1   4  476.60   14.29
  -2   1  -4  453.13   12.82
   2   1   4  423.51   12.93
  -2   1  -4  418.86   11.77
   2   1   4  508.41   16.28
   2  -1   4  460.73   12.60
   2   1   4  431.25   11.45
   2  -1   4  441.31   13.11
  -2   1  -5   18.39    3.17
   2  -1   5    9.95    3.09
  -2   1  -5   15.47    3.13
  -2   1  -5   11.48    2.58
   2  -1   5   15.23    2.79
   2  -1   5   16.83    3.00
   2   1   5   15.08    2.84
  -2   1  -5   13.76    3.01
   2  -1   5   12.30    2.71
   2   1   5   16.35    3.60
  -2  -1  -5   18.12    3.62
   2   1   5   10.41    2.30
   2   1   6  511.58   20.29
   2  -1   6  537.05   18.41
  -2   1  -6  535.60   16.72
  -2   1  -6  529.12   16.49
   2  -1   6  533.49   17.20
   2  -1   6  542.96   17.23
  -2  -1  -6  541.87   18.46
  -2   1  -6  512.49   17.72
  -2   1  -6  538.95   16.97
   2   1   6  549.75   19.29
   2  -1   6  486.74   16.30
  -2   1  -7   14.08    4.66
  -2   1  -7   15.21    4.97
   2  -1   7    5.82    4.87
  -2   1  -7    4.23    3.21
   2  -1   7    5.02    3.76
   2  -1   7    3.33    3.10
  -2  -1  -7    1.43    3.74
   2   1   7    7.71    4.34
   2  -1   8   56.10    7.92
  -2   1  -8   59.97    7.59
   2   2  -8   29.27    5.13
   2   2  -8   33.50    5.66
  -2  -2   8   33.38    6.21
  -2  -2   8   37.34    6.17
  -2  -2   8   41.83    6.72
   2   2  -8   23.28    5.67
   2   2  -7  239.85   13.35
   2   2  -7  230.09   12.32
  -2  -2   7  223.16   12.89
   2   2  -7  229.81   13.11
  -2  -2   7  232.56   13.56
  -2  -2   7  230.34   12.63
  -2  -2   6  194.78   10.56
  -2  -2   6  222.77   11.68
   2   2  -6  213.90   11.41
  -2  -2   6  192.06   11.08
   2   2  -6  210.74   10.67
   2   2  -6  220.90   11.72
  -2  -2   5 1058.07   23.20
   2   2  -5 1083.44   24.09
  -2  -2   5 1034.96   23.70
  -2  -2   5 1051.23   21.56
  -2  -2   5 1129.47   24.30
   2   2  -5 1131.72   24.60
   2   2  -5 1084.96   23.32
   2   2  -4   50.05    4.64
  -2  -2   4   45.66    3.84
  -2  -2   4   49.19    3.89
  -2  -2   4   44.79    4.47
   2   2  -4   48.81    4.00
   2   2  -4   48.31    3.64
   2   2  -4   44.03    4.31
   2   2  -4   45.92    4.51
  -2  -2   4   44.67    4.34
  -2  -2   4   45.13    4.27
   2   2  -3  678.17   14.88
  -2  -2   3  665.41   15.15
  -2  -2   3  698.41   15.73
  -2  -2   3  691.07   14.52
   2   2  -3  678.71   14.52
   2   2  -3  684.37   12.27
   2   2  -3  731.33   15.70
   2   2  -3  706.52   16.00
  -2  -2   3  719.05   15.46
  -2  -2   3  694.32   12.50
   2   2  -2 4826.27   48.02
   2   2  -2 4744.08   42.31
  -2  -2   2 4739.97   45.39
  -2  -2   2 4732.71   46.52
   2   2  -2 4759.08   46.86
  -2  -2   2 4789.96   45.27
   2   2  -2 4674.27   44.42
   2   2  -2 4628.19   45.49
   2   2  -2 4662.70   42.14
  -2  -2   2 4659.45   42.68
  -2  -2   2 4655.94   47.37
   2   2  -1  931.66   16.22
  -2  -2   1  865.64   15.13
   2   2  -1  861.52   15.53
  -2  -2   1  871.29   14.70
  -2  -2   1  854.66   15.47
   2   2  -1  859.68   14.31
  -2  -2   1  937.51   14.37
   2   2  -1  886.14   14.45
   2   2  -1  882.50   12.97
  -2  -2   1  843.47   12.93
   2   2  -1  863.17   14.38
  -2  -2   0   88.25    4.72
  -2  -2   0   90.09    4.78
   2   2   0   90.08    4.71
   2   2   0   88.05    4.60
  -2  -2   0   91.78    4.58
   2   2   0   80.92    4.30
   2   2   0  102.76    4.73
   2   2   1    4.18    1.48
  -2  -2  -1    2.34    1.29
  -2  -2  -1    3.98    1.31
   2   2   1    3.88    1.56
   2   2   1    2.83    1.11
   2   2   1    4.36    1.45
   2   2   2 2452.94   34.88
   2   2   2 2295.22   41.81
   2   2   2 2339.59   34.17
   2   2   2 2372.84   37.48
  -2  -2  -2 2412.93   32.01
   2   2   3 3836.32   51.51
   2   2   3 3693.50   53.39
  -2   2  -4  446.24   14.56
   2  -2   4  384.78   12.84
   2  -2   4  442.37   14.55
  -2   2  -4  451.03   13.80
   2  -2   4  450.79   13.57
   2  -2   5 1627.09   31.57
  -2   2  -5 1565.54   28.57
   2  -2   5 1461.76   27.20
  -2   2  -5 1433.55   29.13
   2  -2   5 1452.20   29.38
  -2   2  -5 1521.29   27.99
   2  -2   5 1356.55   26.81
   2  -2   6  133.17    9.00
   2  -2   6  147.06    9.59
  -2   2  -6  118.91    8.90
   2  -2   6  140.97    8.80
  -2   2  -6  141.19    9.75
   2  -2   6  119.42    8.90
  -2   2  -6  136.42    8.86
  -2   2  -6  133.00    8.49
  -2   2  -7    3.25    3.49
  -2   2  -7   -2.16    3.09
   2  -2   7    2.87    3.48
   2  -2   7    4.37    2.87
  -2   2  -7   -2.01    3.21
   2  -2   7   -2.56    3.20
   2  -2   8   52.00    7.61
  -2   2  -8   57.96    7.42
   2  -2   8   57.12    7.94
  -2   2  -8   59.73    7.76
   2   3  -8  366.93   16.96
  -2  -3   8  390.58   18.51
  -2  -3   8  361.65   17.36
   2   3  -8  357.73   17.67
  -2  -3   8  354.64   18.25
   2   3  -8  377.80   18.19
  -2  -3   7  262.11   13.61
  -2  -3   7  267.00   14.21
   2   3  -7  260.37   13.21
  -2  -3   7  273.80   14.58
   2   3  -7  270.58   14.25
   2   3  -7  276.37   14.56
   2   3  -6   48.63    5.68
  -2  -3   6   54.13    6.25
   2   3  -6   49.86    5.91
  -2  -3   6   44.29    5.71
  -2  -3   6   44.25    5.79
   2   3  -6   62.03    6.67
  -2  -3   5 1311.09   26.85
  -2  -3   5 1260.34   26.84
   2   3  -5 1263.47   26.66
   2   3  -5 1239.00   26.47
   2   3  -5 1292.29   26.84
  -2  -3   5 1204.37   26.89
  -2  -3   4 1830.80   30.50
  -2  -3   4 1879.46   29.47
   2   3  -4 1815.75   29.88
   2   3  -4 1840.37   27.75
  -2  -3   4 1822.02   30.39
   2   3  -4 1891.91   30.27
  -2  -3   4 1827.31   30.70
  -2  -3   3  885.16   18.65
  -2  -3   3  820.24   18.45
  -2  -3   3  849.35   18.51
   2   3  -3  762.75   16.76
   2   3  -3  869.92   18.42
   2   3  -3  808.48   17.07
  -2  -3   3  809.42   17.69
   2   3  -3  799.91   18.55
  -2  -3   2   76.26    5.36
  -2  -3   2   81.03    5.45
   2   3  -2   82.18    5.60
   2   3  -2   87.25    5.22
  -2  -3   2   80.37    5.09
  -2  -3   2   89.38    4.22
   2   3  -2   89.04    6.12
   2   3  -2   98.02    5.33
  -2  -3   1 3670.39   42.90
   2   3  -1 3797.13   53.80
   2   3  -1 3472.10   64.88
   2   3  -1 3477.94   51.61
   2  -3   6  186.47   10.60
   2  -3   6  200.52   12.53
  -2   3  -6  219.51   13.12
  -2   3  -6  228.05   13.61
   2  -3   6  199.85   11.91
  -2   3  -7   80.79    8.92
   2  -3   7   73.87    8.10
   2  -3   7   68.89    7.95
  -2   3  -7   82.06    9.10
  -2   3  -8   23.75    6.19
  -2   3  -8   32.00    6.57
   2  -3   8   33.19    6.67
  -2  -4   8  161.50   12.74
  -2  -4   8  195.50   14.41
  -2  -4   8  190.39   13.83
   2   4  -8  179.51   13.02
   2   4  -8  166.09   12.04
   2   4  -8  189.59   14.08
  -2  -4   7  595.43   21.99
  -2  -4   7  536.64   21.17
  -2  -4   7  581.38   23.02
   2   4  -7  558.29   21.34
   2   4  -7  614.71   23.34
   2   4  -7  562.50   21.07
   2   4  -6  143.39   10.31
  -2  -4   6  153.27   10.98
  -2  -4   6  150.24   10.53
  -2  -4   6  143.98   10.41
   2   4  -6  152.30   10.58
   2   4  -6  146.99   10.49
   2   4  -5   13.89    4.04
   2   4  -5   11.43    3.46
   2   4  -5   17.31    4.10
  -2  -4   5   10.42    3.32
  -2  -4   5   13.80    3.86
  -2  -4   5   14.30    3.69
  -2  -4   4  884.56   22.88
   2   4  -4  914.05   22.78
   2   4  -4  889.39   23.72
  -2  -4   4  839.74   22.53
   2   4  -4  955.80   26.20
   2   4  -3  153.05   13.16
   2   4  -3  135.50   11.49
   2   4  -3  146.81   11.65
  -2  -4   3  165.56    9.85
   2   5  -8   -3.50    5.21
   2   5  -7  108.14   13.36
  -2  -5   7  135.49   14.30
   2   5  -7  145.25   18.63
  -2  -5   6  596.71   26.98
   2   5  -6  544.26   33.65
  -3   0   0 3508.73   38.64
   3   0   0 3717.23   40.17
   3   0   0 3484.78   39.81
   3   0   0 3527.21   39.26
   3   0   0 3534.96   37.45
  -3   0  -1   -2.05    1.82
  -3   0  -1   -1.98    1.64
   3   0   1   -0.40    1.05
   3   0   1   -1.92    1.51
   3   0   1   -1.60    1.65
   3   0   1   -0.73    0.88
   3   0   1   -1.46    1.58
  -3   0  -2   54.19    4.23
  -3   0  -2   55.00    4.35
  -3   0  -2   64.30    4.32
   3   0   2   61.89    4.53
   3   0   2   63.27    4.16
   3   0   2   62.85    4.65
   3   0   2   60.55    4.33
  -3   0  -3   -0.64    1.58
  -3   0  -3   -2.71    1.91
  -3   0  -3   -0.50    1.44
   3   0   3   -1.25    1.81
   3   0   3    0.94    1.69
   3   0   3   -0.54    1.31
   3   0   3    1.00    1.51
  -3   0  -4   86.35    5.83
  -3   0  -4   73.06    6.07
  -3   0  -4   79.25    5.56
   3   0   4   87.77    5.66
  -3   0  -4   85.63    6.23
   3   0   4   80.12    6.24
   3   0   4   82.33    6.13
   3   0   4   88.08    6.15
  -3   0  -5    1.67    2.60
  -3   0  -5   -1.64    2.52
   3   0   5   -2.51    2.65
   3   0   5   -2.88    2.81
  -3   0  -6 2632.52   43.51
  -3   0  -6 2684.29   44.79
   3   0   6 2664.15   45.18
   3   0   6 2765.92   45.93
  -3   0  -7   -3.75    3.52
  -3   0  -7   -3.38    3.62
   3   0   7    0.11    3.22
   3   0   7    0.06    3.16
   3   0   8   59.22    8.16
  -3   0  -8   71.38    8.57
  -3   0  -8   59.40    7.87
   3   0   8   84.72    9.73
  -3  -1   5  101.66    7.57
   3   1  -5   93.20    6.91
  -3  -1   5  110.82    7.77
  -3  -1   5  115.51    7.91
   3   1  -5  116.73    7.69
   3   1  -5  125.77    8.28
   3   1  -4   58.34    5.22
  -3  -1   4   63.00    5.46
   3   1  -4   54.05    4.99
  -3  -1   4   60.00    5.60
  -3  -1   4   60.69    5.27
   3   1  -4   64.20    5.78
   3   1  -4   61.90    5.13
   3   1  -3   50.97    4.36
   3   1  -3   50.50    4.12
  -3  -1   3   50.54    4.10
  -3  -1   3   48.30    4.24
   3   1  -3   54.29    4.54
  -3  -1   3   54.41    4.53
   3   1  -3   48.77    3.94
   3   1  -3   53.13    3.37
   3   1  -2 2575.29   29.61
  -3  -1   2 2627.96   30.98
  -3  -1   2 2629.53   32.23
  -3  -1   2 2618.56   29.23
   3   1  -2 2612.52   32.96
   3   1  -2 2648.99   32.27
   3   1  -2 2648.43   29.17
   3   1  -2 2482.67   30.56
  -3  -1   1 1616.09   22.72
   3   1  -1 1637.35   22.20
  -3  -1   1 1570.69   21.84
   3   1  -1 1633.18   18.18
   3   1  -1 1617.70   23.53
   3   1  -1 1638.22   18.43
   3   1  -1 1610.87   22.44
   3   1  -1 1662.06   23.29
   3   1   0    2.26    1.27
  -3  -1   0    1.64    1.24
  -3  -1   0    4.19    1.38
  -3  -1   0    2.95    0.99
   3   1   0    1.98    0.80
   3   1   0    1.15    1.15
   3   1   0    2.87    0.85
   3   1   0    1.41    1.08
  -3  -1  -1  133.18    6.51
  -3  -1  -1  128.80    6.13
   3   1   1  131.35    6.40
  -3  -1  -1  114.16    5.73
   3   1   1  132.45    5.82
  -3  -1  -1  130.59    4.82
   3   1   1  132.67    6.01
   3   1   1  124.15    4.51
   3   1   1  129.70    6.41
   3   1   2   62.72    4.74
  -3   1  -2   64.40    5.26
  -3  -1  -2   68.93    4.93
  -3  -1  -2   60.67    3.90
   3   1   2   64.03    4.80
   3   1   2   64.45    3.88
  -3  -1  -2   66.95    4.10
   3  -1   2   59.30    5.37
   3   1   2   55.65    4.32
  -3  -1  -2   64.89    4.77
   3  -1   2   58.90    5.26
   3   1   2   62.81    3.87
   3  -1   2   60.90    5.35
  -3  -1  -3  261.70   10.03
   3   1   3  263.98    9.81
  -3   1  -3  248.74   10.10
  -3  -1  -3  245.01   10.10
  -3   1  -3  265.11   10.81
  -3  -1  -3  253.77    9.18
   3  -1   3  253.70   10.36
   3   1   3  258.88   10.34
  -3   1  -3  245.80    8.34
   3  -1   3  276.90   10.49
   3   1   3  253.73    9.14
   3  -1   3  249.29    9.69
   3   1   3  258.59    9.91
  -3  -1  -4  915.39   20.42
   3  -1   4  828.84   18.30
  -3  -1  -4  895.96   21.22
   3   1   4  868.57   19.70
  -3   1  -4  927.80   21.51
  -3  -1  -4  867.02   19.73
  -3   1  -4  869.78   20.44
   3   1   4  922.89   21.57
   3  -1   4  870.66   20.88
   3  -1   4  904.38   21.07
   3   1   4  868.80   19.60
   3   1   4  853.08   18.86
  -3   1  -5  469.32   16.04
  -3  -1  -5  475.35   16.44
  -3   1  -5  472.51   16.38
  -3  -1  -5  448.61   15.55
   3  -1   5  475.81   16.45
   3   1   5  432.62   15.92
   3  -1   5  467.14   16.58
   3   1   5  437.93   15.31
  -3   1  -6  290.23   13.69
  -3  -1  -6  294.69   14.01
  -3   1  -6  258.76   13.42
  -3  -1  -6  284.67   13.58
   3  -1   6  302.25   14.19
   3   1   6  276.26   14.12
   3  -1   6  298.06   14.50
   3   1   6  302.08   14.42
  -3   1  -7   28.36    5.46
  -3  -1  -7   25.35    5.39
   3  -1   7   23.36    4.74
  -3   1  -7   28.53    5.39
  -3  -1  -7   26.39    5.48
   3  -1   7   27.21    5.16
   3   1   7   27.99    6.14
   3   1   7   31.51    6.08
  -3   1  -8  121.19   10.37
  -3   1  -8  122.43   10.74
   3  -1   8  111.17    9.94
   3  -1   8  127.85   11.66
  -3  -2   8  129.93   10.92
  -3  -2   8  120.34   10.52
   3   2  -8  142.16   11.33
   3   2  -7   46.15    6.90
   3   2  -7   38.93    6.06
  -3  -2   7   36.55    5.89
  -3  -2   7   34.00    5.50
   3   2  -7   42.68    6.61
  -3  -2   7   37.13    6.34
   3   2  -6  190.39   11.11
  -3  -2   6  189.10   11.21
  -3  -2   6  188.34   11.13
   3   2  -6  185.91   10.86
   3   2  -6  196.26   11.17
  -3  -2   6  200.49   11.79
   3   2  -5  528.11   16.70
  -3  -2   5  513.14   17.00
  -3  -2   5  542.59   15.76
  -3  -2   5  489.50   16.05
   3   2  -5  523.55   15.72
  -3  -2   5  548.45   17.48
   3   2  -5  521.96   16.48
   3   2  -5  499.13   16.44
   3   2  -4  595.70   16.08
   3   2  -4  585.47   16.60
  -3  -2   4  594.83   15.85
  -3  -2   4  572.97   15.50
   3   2  -4  596.48   15.73
   3   2  -4  598.45   15.89
  -3  -2   4  565.31   16.12
  -3  -2   4  575.74   16.65
  -3  -2   3 3245.06   38.17
  -3  -2   3 3102.29   39.58
   3   2  -3 3088.72   39.62
  -3  -2   3 3171.46   38.29
   3   2  -3 3191.68   38.21
  -3  -2   3 3127.33   40.45
   3   2  -3 3175.30   40.77
   3   2  -3 3318.30   38.70
  -3  -2   2   76.79    4.69
  -3  -2   2   78.57    4.53
  -3  -2   2   87.35    5.55
  -3  -2   2   76.13    4.40
  -3  -2   2   77.44    5.35
  -3  -2   2   81.13    4.52
   3   2  -2   83.48    5.58
   3   2  -2   86.00    4.79
   3   2  -2   82.92    4.78
   3   2  -2   81.64    4.89
   3   2  -2   80.58    4.51
   3   2  -2   76.23    5.15
  -3  -2   1  770.83   15.60
  -3  -2   1  763.08   11.83
  -3  -2   1  709.49   11.89
  -3  -2   1  726.06   11.77
  -3  -2   1  735.12   16.03
   3   2  -1  702.14   11.57
   3   2  -1  746.18   16.05
  -3  -2   1  769.10   15.33
   3   2  -1  729.02   12.01
   3   2  -1  709.69   12.09
   3   2  -1  765.46   15.33
   3   2  -1  768.70   15.28
   3   2  -1  765.63   15.37
   3   2   0 2792.67   30.24
   3   2   0 2779.76   34.14
  -3  -2   0 2723.21   33.95
  -3  -2   0 2717.43   33.85
   3   2   0 2741.02   33.54
   3   2   0 2737.11   30.75
   3   2   0 2656.03   33.39
  -3  -2   0 2780.40   31.15
  -3  -2  -1  162.55    7.09
   3   2   1  133.16    4.78
  -3  -2  -1  148.89    6.93
   3   2   1  144.84    6.50
  -3  -2  -1  153.37    4.95
   3   2   1  158.75    6.90
   3   2   1  143.12    6.94
   3   2   1  142.26    6.87
  -3  -2  -2   64.00    5.11
  -3  -2  -2   63.32    4.60
   3   2   2   52.93    3.94
  -3  -2  -2   63.05    3.92
   3   2   2   61.14    4.85
   3   2   2   59.57    4.80
   3   2   2   65.41    5.02
  -3  -2  -3    2.13    2.00
   3   2   3    9.82    2.45
  -3  -2  -3    2.57    1.58
   3   2   3    1.52    1.79
   3   2   3    8.84    2.54
   3  -2   4  472.18   18.84
  -3  -2  -4  636.50   17.05
   3   2   4  656.95   19.26
  -3   2  -4  476.80   17.25
   3  -2   4  435.28   17.75
   3   2   4  604.62   23.91
   3   2   4  633.82   17.27
  -3   2  -5 1057.95   27.78
   3  -2   5 1110.49   26.80
  -3  -2  -5 1085.82   25.01
   3   2   5 1179.22   30.69
   3  -2   5 1012.88   26.91
  -3   2  -5 1220.95   27.13
   3   2   5 1248.06   26.95
  -3   2  -6   65.20    7.13
  -3   2  -6   64.23    7.47
   3  -2   6   66.48    6.81
   3  -2   6   75.44    7.82
  -3   2  -7  324.39   16.22
  -3   2  -7  319.92   16.54
   3  -2   7  338.42   16.38
   3  -2   7  312.52   16.59
   3  -2   8   21.19    4.71
  -3   2  -8   20.46    5.75
   3   3  -8   49.30    7.30
  -3  -3   8   36.69    6.18
  -3  -3   8   51.10    8.18
   3   3  -8   44.08    7.17
   3   3  -8   48.69    7.31
  -3  -3   8   47.40    7.47
   3   3  -7  386.92   17.53
  -3  -3   7  381.87   17.32
  -3  -3   7  384.70   17.65
   3   3  -7  367.86   17.05
  -3  -3   7  397.10   18.35
   3   3  -7  350.76   16.25
  -3  -3   6  716.82   22.23
  -3  -3   6  656.21   20.81
   3   3  -6  735.38   22.45
  -3  -3   6  688.79   22.46
   3   3  -6  648.48   20.76
   3   3  -6  719.37   21.95
  -3  -3   5  377.55   15.01
  -3  -3   5  382.82   14.29
   3   3  -5  400.25   15.27
  -3  -3   5  399.49   14.08
  -3  -3   5  368.03   14.75
   3   3  -5  370.95   13.15
   3   3  -5  390.81   14.35
   3   3  -5  375.69   14.59
   3   3  -4    4.29    2.66
   3   3  -4    5.84    2.25
  -3  -3   4    5.05    2.15
  -3  -3   4    5.27    2.56
   3   3  -4    5.45    2.70
   3   3  -4    4.19    1.90
  -3  -3   4    4.43    1.95
  -3  -3   4    3.41    2.19
   3   3  -3 2568.62   37.25
  -3  -3   3 2498.12   34.74
  -3  -3   3 2414.52   34.17
  -3  -3   3 2517.99   36.96
  -3  -3   3 2609.67   36.93
   3   3  -3 2467.56   35.74
   3   3  -3 2465.27   34.33
   3   3  -3 2579.26   34.05
  -3  -3   2 1993.26   28.76
  -3  -3   2 2049.98   29.38
  -3  -3   2 1957.56   30.41
  -3  -3   2 1972.00   30.87
   3   3  -2 1978.86   30.44
   3   3  -2 1967.98   26.39
   3   3  -2 2179.74   31.17
  -3  -3   2 1973.24   27.15
   3   3  -2 1982.97   30.23
   3   3  -2 1994.05   27.50
  -3  -3   1 1013.75   20.11
  -3  -3   1 1048.37   20.60
  -3  -3   1  965.90   20.18
   3   3  -1  990.17   20.46
  -3  -3   1  916.25   15.28
   3   3  -1 1027.95   20.68
   3   3  -1 1013.34   19.82
   3   3  -1  980.22   19.29
   3   3   0   19.00    3.15
  -3  -3   0   13.47    2.50
  -3  -3   0   20.69    3.25
   3   3   0   14.65    2.73
   3   3   0   17.69    2.98
   3   3   0   12.88    2.58
  -3  -3  -1 1139.94   23.24
   3   3   1 1214.08   29.87
   3   3   1 1357.88   28.63
   3   3   1 1238.93   27.77
   3   3   1 1293.79   27.95
   3   3   2  195.03   18.87
   3   3   2  164.61   15.34
   3   3   2  165.52   14.97
  -3  -4   8   22.74    6.46
  -3  -4   8    8.37    4.49
   3   4  -8   11.93    5.30
  -3  -4   8   12.50    5.15
   3   4  -8   15.47    5.74
   3   4  -8    8.15    3.85
   3   4  -7  103.60    9.60
  -3  -4   7  107.32    9.88
  -3  -4   7  103.42    9.67
  -3  -4   7   85.14    8.91
   3   4  -7   89.56    8.57
   3   4  -7  106.06    9.61
  -3  -4   6  249.99   13.22
  -3  -4   6  251.67   13.92
  -3  -4   6  241.06   13.77
   3   4  -6  244.67   12.92
   3   4  -6  231.42   12.98
   3   4  -6  242.48   13.55
  -3  -4   5 1430.49   31.00
  -3  -4   5 1477.72   32.15
  -3  -4   5 1399.22   31.54
   3   4  -5 1468.50   31.13
   3   4  -5 1368.16   30.06
   3   4  -5 1308.09   30.73
  -3  -4   4  148.79    9.31
  -3  -4   4  126.66    8.99
  -3  -4   4  144.30    9.03
   3   4  -4  126.89    8.53
   3   4  -4  123.28    8.96
   3   4  -4  129.97    8.23
   3   4  -4  126.21    8.82
  -3  -4   4  126.23    8.40
   3   4  -3    1.21    2.29
  -3  -4   3    4.83    1.99
   3   4  -3    4.48    2.24
  -3  -4   3    3.90    2.39
  -3  -4   3    3.45    2.50
   3   4  -3    4.12    2.45
  -3  -4   2 1113.89   25.94
  -3  -4   2 1164.97   24.82
   3   4  -2 1063.81   27.95
  -3  -4   2 1106.93   21.37
   3   4  -2 1130.55   28.89
   3   4  -2 1148.41   26.86
   3   4  -1   62.80   11.65
   3   4  -1   65.40   14.13
   3   5  -7   -3.81    5.68
  -3  -5   7    5.33    5.39
   3   5  -7    8.45    7.53
  -3  -5   7    0.39    4.11
  -3  -5   7   -0.86    5.14
   3   5  -6    9.04    4.64
  -3  -5   6   10.36    5.33
   3   5  -6   -1.71    4.73
  -3  -5   6    7.11    4.02
   3   5  -5   99.17   12.07
  -3  -5   5  100.86    9.61
   3   5  -5   82.33   10.39
  -3  -5   5   84.54    8.45
  -3  -5   4  634.05   20.09
   3   5  -4  568.22   31.58
   3   5  -4  526.61   28.37
   3   5  -4  535.71   32.14
   4   0   0 1490.75   26.36
   4   0   0 1614.60   28.23
   4   0   0 1596.32   28.34
  -4   0  -1    0.59    1.73
  -4   0  -1    0.15    2.12
   4   0   1   -0.77    1.61
   4   0   1   -2.35    1.98
   4   0   1    2.13    1.59
  -4   0  -2  852.82   19.38
  -4   0  -2  874.72   19.76
   4   0   2  848.36   19.02
   4   0   2  909.46   17.37
   4   0   2  865.37   19.52
   4   0   2  834.75   19.02
  -4   0  -3   -1.31    2.46
  -4   0  -3    3.04    2.59
  -4   0  -3    0.18    1.85
   4   0   3    1.23    2.05
   4   0   3   -0.06    2.00
   4   0   3    0.99    2.03
   4   0   3   -1.87    1.82
  -4   0  -4   32.94    4.80
   4   0   4   27.53    3.97
  -4   0  -4   23.92    3.97
  -4   0  -4   31.57    4.18
   4   0   4   23.32    4.06
   4   0   4   39.24    4.93
   4   0   4   35.83    4.33
  -4   0  -5   -3.27    3.35
  -4   0  -5   -0.46    2.77
   4   0   5    1.91    3.25
   4   0   5    2.79    2.65
  -4   0  -6    1.75    3.70
  -4   0  -6    8.20    3.83
   4   0   6   -4.35    3.21
   4   0   6    5.20    3.26
  -4   0  -7    6.85    4.46
  -4   0  -7   -5.61    4.15
   4   0   7   -2.38    3.44
   4   0   7   -5.02    3.75
  -4   0  -8  565.01   24.23
   4   0   8  509.44   23.68
   4   0   8  568.25   24.39
   4   1  -4  125.09    8.29
  -4  -1   4  135.77    9.24
  -4  -1   4  127.93    8.19
   4   1  -4  133.96    8.21
   4   1  -3  151.01    8.42
  -4  -1   3  147.39    8.53
  -4  -1   3  150.50    7.58
   4   1  -3  160.66    9.11
   4   1  -3  157.28    7.43
   4   1  -3  151.05    7.42
   4   1  -2   62.93    5.03
  -4  -1   2   50.68    4.51
   4   1  -2   58.68    5.06
   4   1  -2   59.58    4.51
   4   1  -2   50.64    4.89
   4   1  -1    6.52    1.90
  -4  -1   1    5.98    2.15
   4   1  -1    5.51    1.93
  -4  -1   1    6.21    1.45
   4   1  -1    4.94    1.81
   4   1  -1    3.45    1.19
   4   1  -1    2.43    1.53
  -4  -1   0 1465.63   25.17
  -4  -1   0 1500.58   23.48
  -4  -1   0 1523.03   21.56
   4   1   0 1500.42   24.56
   4   1   0 1533.30   22.36
   4   1   0 1529.49   25.53
   4   1   0 1523.07   25.41
  -4  -1  -1  110.20    6.70
  -4  -1  -1  102.39    6.14
   4   1   1  128.97    6.49
   4   1   1  111.40    6.16
   4   1   1  124.76    7.23
   4   1   1  112.03    6.69
  -4  -1  -2    9.55    3.26
  -4  -1  -2   10.15    2.82
   4   1   2    5.11    1.88
  -4  -1  -2    9.12    2.09
   4   1   2    9.40    2.17
   4   1   2   10.13    2.72
   4   1   2    5.57    2.48
  -4  -1  -3   10.93    2.86
  -4  -1  -3    9.88    3.01
  -4   1  -3    4.54    2.57
  -4  -1  -3    9.41    3.01
  -4  -1  -3    7.30    2.55
   4  -1   3   10.73    3.77
   4   1   3    8.70    2.93
   4  -1   3   14.97    3.77
   4  -1   3   14.65    4.00
   4   1   3    7.27    2.69
   4   1   3   12.98    3.34
  -4  -1  -4   10.27    3.15
  -4  -1  -4   15.34    3.31
  -4   1  -4   13.52    3.16
  -4  -1  -4   10.21    3.26
  -4   1  -4   16.70    4.35
   4  -1   4   13.99    3.34
  -4  -1  -4   16.27    3.29
   4   1   4   19.42    4.15
   4  -1   4   11.80    3.34
   4   1   4   12.57    2.72
   4  -1   4   22.32    3.98
   4   1   4   14.45    3.42
   4   1   4   14.63    3.53
  -4  -1  -5  174.50    9.59
  -4   1  -5  152.56   10.32
  -4  -1  -5  164.91   10.57
   4   1   5  153.70    9.28
  -4   1  -5  161.91   10.63
  -4  -1  -5  165.18    9.99
   4  -1   5  164.35   10.84
   4   1   5  157.96   10.77
   4  -1   5  171.11   10.67
   4   1   5  154.56    9.60
  -4   1  -6  186.14   11.98
  -4  -1  -6  179.96   11.87
  -4   1  -6  175.98   11.57
  -4  -1  -6  190.41   11.77
   4  -1   6  193.11   12.36
   4   1   6  186.21   12.60
   4  -1   6  189.03   12.15
   4   1   6  176.07   11.41
  -4   1  -7  243.44   14.45
  -4  -1  -7  262.01   15.16
  -4   1  -7  225.25   14.29
  -4  -1  -7  241.45   14.42
   4  -1   7  225.09   14.45
   4   1   7  258.89   16.36
   4  -1   7  245.57   15.16
   4   1   7  270.49   16.45
  -4   1  -8  128.05   11.67
  -4  -1  -8  139.31   12.04
   4  -1   8  137.31   12.41
   4   2  -6  338.23   15.86
  -4  -2   6  329.70   15.87
  -4  -2   6  342.42   15.94
   4   2  -6  330.61   15.35
   4   2  -5    9.29    3.03
   4   2  -5   10.09    3.37
  -4  -2   5   12.68    3.42
  -4  -2   5   13.65    4.11
  -4  -2   5   13.03    3.53
   4   2  -5   11.95    3.28
  -4  -2   5    7.98    2.40
   4   2  -5   13.99    3.41
  -4  -2   4  608.46   17.42
  -4  -2   4  586.96   17.92
  -4  -2   4  578.52   16.10
   4   2  -4  573.12   17.41
   4   2  -4  613.63   16.66
   4   2  -4  582.86   17.71
  -4  -2   3  888.72   20.71
   4   2  -3  924.26   21.28
   4   2  -3  927.22   21.06
  -4  -2   2  699.54   16.12
  -4  -2   2  705.61   17.20
  -4  -2   2  718.42   17.89
   4   2  -2  684.27   17.62
   4   2  -2  670.39   15.65
   4   2  -2  671.45   16.15
   4   2  -2  693.42   16.85
   4   2  -1 2544.89   33.34
  -4  -2   1 2647.25   35.58
  -4  -2   1 2630.73   34.31
  -4  -2   1 2625.19   36.96
   4   2  -1 2652.09   36.88
   4   2  -1 2599.01   35.07
   4   2  -1 2522.54   35.44
  -4  -2   0  185.86    8.80
  -4  -2   0  179.21    8.65
  -4  -2   0  188.88    7.63
  -4  -2   0  181.25    7.16
  -4  -2   0  202.56    9.11
   4   2   0  178.08    8.42
   4   2   0  180.47    7.32
   4   2   0  186.55    8.76
   4   2   0  190.09    8.84
   4   2   0  153.58    6.57
  -4  -2  -1  397.62   13.49
  -4  -2  -1  384.29   12.12
  -4  -2  -1  312.72   11.39
   4   2   1  390.30   12.16
   4   2   1  379.81   11.81
   4   2   1  349.35   12.45
   4   2   1  355.69   12.69
  -4  -2  -2  685.18   18.13
  -4  -2  -2  735.84   18.62
  -4  -2  -2  703.99   17.19
   4   2   2  726.70   16.56
   4   2   2  703.85   17.72
   4   2   2  693.58   18.46
   4   2   2  727.05   18.42
  -4  -2  -3    4.14    2.82
  -4  -2  -3    4.82    2.60
   4   2   3    2.56    2.07
   4   2   3    9.49    2.86
   4   2   3    5.64    2.22
  -4  -2  -4   10.71    3.34
  -4  -2  -4   12.95    3.88
   4   2   4   10.51    3.61
   4   2   4   11.86    3.37
   4   2   4    9.88    2.95
  -4  -2  -5   24.36    5.52
   4   2   5    4.76    2.96
   4   2   5   18.63    6.22
   4   2   5    9.73    3.00
  -4  -2  -6  151.01   11.32
  -4  -2  -6  134.37    9.75
   4  -2   6   99.00   10.52
   4   2   6  152.40   12.57
   4  -2   6  114.85   11.95
   4  -2   7  206.07   15.03
   4  -2   7  241.63   17.58
   4  -2   8    7.92    5.73
  -4  -3   8    5.02    4.42
   4   3  -8    0.38    3.74
   4   3  -8    9.74    6.22
  -4  -3   8    0.96    3.40
   4   3  -7   21.92    5.33
  -4  -3   7   22.54    5.40
  -4  -3   7   15.29    4.62
   4   3  -7   26.74    5.83
  -4  -3   7    9.92    4.35
   4   3  -7   14.23    4.69
   4   3  -6   33.78    5.38
  -4  -3   6   46.01    6.45
   4   3  -6   41.51    5.74
  -4  -3   6   35.08    4.95
  -4  -3   6   38.81    6.04
   4   3  -6   37.64    5.79
  -4  -3   5  821.94   23.83
  -4  -3   5  840.67   22.82
   4   3  -5  833.50   22.26
   4   3  -5  791.85   21.62
  -4  -3   5  914.83   24.37
   4   3  -5  841.63   23.80
  -4  -3   4 1058.76   25.37
  -4  -3   4 1080.49   25.17
  -4  -3   4 1013.90   23.46
   4   3  -4 1082.61   26.31
  -4  -3   3  309.89   12.58
  -4  -3   3  305.29   12.68
   4   3  -3  315.71   12.90
   4   3  -3  300.03   12.37
   4   3  -2   23.05    3.90
  -4  -3   2   20.35    3.28
  -4  -3   2   21.64    3.52
  -4  -3   2   13.33    2.94
  -4  -3   2   11.50    2.43
   4   3  -2   14.03    2.66
   4   3  -2   22.95    3.32
   4   3  -2   17.24    3.16
  -4  -3   1 2480.00   36.43
  -4  -3   1 2553.10   36.14
  -4  -3   1 2624.73   39.13
   4   3  -1 2602.57   37.93
   4   3  -1 2565.57   36.35
   4   3  -1 2565.34   36.47
   4   3  -1 2579.55   34.89
  -4  -3   0 1050.32   22.88
  -4  -3   0  913.12   20.58
  -4  -3   0 1098.13   23.20
   4   3   0  875.32   20.44
   4   3   0 1021.22   21.92
   4   3   0  991.72   21.66
  -4  -3  -1  211.72   10.37
  -4  -3  -1  220.41   10.55
   4   3   1  197.03    9.21
   4   3   1  198.55   10.56
   4   3   1  206.94    9.98
   4   3   1  197.69    9.71
  -4  -3  -2    1.41    2.66
   4   3   2    0.77    1.91
   4   3   2    3.34    2.30
   4   3   2    3.31    2.70
   4   3   2    3.31    2.20
  -4  -3  -3  394.41   15.66
   4   3   3  332.56   16.22
   4   3   3  384.48   18.00
   4   3   3  392.96   16.82
   4   3   4   42.81    7.61
   4   4  -8  151.10   13.31
   4   4  -7   12.61    5.09
  -4  -4   7   17.50    5.75
  -4  -4   7   12.63    5.14
  -4  -4   7   19.47    5.62
   4   4  -7   10.42    4.42
  -4  -4   6   28.27    5.35
   4   4  -6   25.83    5.15
  -4  -4   6   18.68    4.94
   4   4  -6   17.28    4.46
  -4  -4   5  209.65   12.36
  -4  -4   5  226.14   12.73
   4   4  -5  200.53   11.37
  -4  -4   5  219.41   12.34
   4   4  -5  203.25   12.26
  -4  -4   4  268.57   13.47
  -4  -4   4  265.61   13.11
   4   4  -4  261.23   12.55
   4   4  -4  271.64   13.34
  -4  -4   3 2096.00   37.77
  -4  -4   3 2071.54   37.70
   4   4  -3 2066.42   37.08
   4   4  -3 2135.15   37.90
  -4  -4   2   74.04    6.83
  -4  -4   2   68.01    6.72
   4   4  -2   64.68    6.64
   4   4  -2   72.85    6.82
   4   4  -2   70.37    6.07
   4   4  -1   17.29    3.68
  -4  -4   1   18.93    3.93
   4   4  -1   21.38    4.23
   4   4  -1   16.14    6.01
   4   4  -1   27.06    4.94
  -4  -4   0  782.23   21.19
   4   4   0  820.51   28.17
   4   4   0  749.06   26.73
  -4  -5   7    1.31    4.23
   4   5  -6    5.29    3.97
  -4  -5   6    8.57    5.13
   4   5  -5    3.75    4.57
  -4  -5   5    0.75    3.61
   4   5  -5   13.87    6.31
   4   5  -4   32.37    6.80
  -4  -5   4   37.62    6.44
   4   5  -4   30.39    6.38
   4   5  -3   22.76    7.67
   4   5  -3   15.18    6.79
   5   0   1    1.10    2.19
   5   0   1   -0.30    2.39
   5   0   1   -2.81    2.62
  -5   0  -2  252.97   11.61
  -5   0  -2  281.68   13.09
   5   0   2  258.13   11.70
   5   0   2  282.84   12.76
   5   0   2  286.03   12.75
   5   0   3   -3.76    2.52
  -5   0  -3   -1.09    2.99
  -5   0  -3    2.26    3.44
   5   0   3   -0.34    2.36
   5   0   3   -3.63    3.06
  -5   0  -4  237.89   12.02
  -5   0  -4  255.11   13.41
   5   0   4  282.50   13.58
   5   0   4  263.29   13.24
   5   0   4  259.90   12.60
  -5   0  -5   -8.13    4.36
   5   0   5   -1.80    3.98
  -5   0  -6    6.95    4.41
   5   0   6   -0.44    4.86
  -5   0  -7  -10.88    5.57
   5   0   7   -8.87    4.89
  -5  -1   2   90.03    6.88
   5   1  -2   92.90    7.55
   5   1  -2  101.02    7.27
  -5  -1   1   45.62    4.59
  -5  -1   1   54.30    4.72
   5   1  -1   48.62    5.21
   5   1  -1   56.57    5.40
   5   1  -1   49.08    5.32
  -5  -1   0  103.55    7.58
   5   1   0  113.61    7.54
   5   1   0  112.82    6.45
   5   1   0  100.32    7.14
   5   1   0  100.50    7.03
  -5  -1  -1   17.48    3.94
  -5  -1  -1   30.19    4.31
   5   1   1   24.77    3.43
   5   1   1   22.56    3.49
   5   1   1   18.72    3.50
   5   1   1   26.19    4.10
  -5  -1  -2  468.30   16.12
  -5  -1  -2  463.83   15.92
   5   1   2  453.26   15.20
   5   1   2  424.58   15.58
   5   1   2  463.22   15.80
  -5  -1  -3   27.10    4.72
  -5  -1  -3   39.81    5.31
  -5  -1  -3   31.12    4.71
   5   1   3   28.75    4.74
   5   1   3   35.60    5.20
   5   1   3   37.52    5.09
  -5  -1  -4    8.15    3.77
  -5  -1  -4   11.38    3.70
  -5  -1  -4   16.31    4.05
   5  -1   4    3.68    5.57
   5   1   4   11.68    3.71
   5  -1   4    4.67    3.99
   5  -1   4   -1.35    4.25
   5   1   4   11.98    3.66
   5   1   4   15.39    3.76
  -5  -1  -5    7.11    3.95
  -5   1  -5   13.97    5.41
  -5  -1  -5   -1.22    3.16
   5  -1   5    3.78    4.60
   5   1   5    5.65    3.64
   5  -1   5    6.97    4.90
   5   1   5    0.82    2.84
  -5  -1  -6    7.62    3.78
   5  -1   6    0.91    4.54
   5   1   6    6.38    4.49
   5  -1   6    6.17    4.84
   5  -1   7   79.72   10.56
   5  -1   7   75.66   10.53
   5   2  -5   93.00    8.71
  -5  -2   5  109.43   10.15
  -5  -2   5  115.18    9.55
   5   2  -4  552.47   18.79
  -5  -2   4  537.68   18.97
   5   2  -4  571.88   19.83
   5   2  -3    7.94    2.88
  -5  -2   3    4.70    2.95
   5   2  -3    8.32    2.75
   5   2  -2  761.85   19.49
  -5  -2   2  805.60   19.91
  -5  -2   2  833.76   20.33
   5   2  -2  801.96   21.08
   5   2  -2  840.89   19.75
   5   2  -2  782.81   19.92
  -5  -2   1  361.53   13.63
  -5  -2   1  387.08   14.43
   5   2  -1  372.62   13.76
   5   2  -1  371.62   13.35
   5   2  -1  381.26   13.81
  -5  -2   0  376.08   14.24
  -5  -2   0  363.37   13.93
  -5  -2   0  355.98   13.83
   5   2   0  331.89   12.79
   5   2   0  364.84   13.74
   5   2   0  366.69   14.00
  -5  -2  -1  829.77   21.98
  -5  -2  -1  801.34   21.16
  -5  -2  -1  783.58   19.76
  -5  -2  -1  819.83   20.33
   5   2   1  815.78   20.08
   5   2   1  801.65   19.12
   5   2   1  842.00   21.93
   5   2   1  803.77   21.35
  -5  -2  -2  146.35    9.69
  -5  -2  -2  141.29    9.33
  -5  -2  -2  158.94    9.35
   5   2   2  136.83    8.57
   5   2   2  147.57    9.53
   5   2   2  144.19    9.22
  -5  -2  -3  108.44    8.31
  -5  -2  -3  121.24    8.90
  -5  -2  -3  122.78    8.85
   5   2   3  119.79    8.77
   5   2   3  118.57    8.78
   5   2   3  128.77    9.15
  -5  -2  -4  220.85   12.47
  -5  -2  -4  205.03   11.93
  -5  -2  -4  200.66   12.20
   5   2   4  207.41   12.28
   5   2   4  205.02   12.11
   5   2   4  216.07   11.97
  -5  -2  -5    4.25    3.79
  -5  -2  -5   -0.45    3.46
  -5  -2  -5    1.12    3.94
   5   2   5    4.21    3.26
   5   2   5    4.98    3.63
   5   2   5    4.16    2.76
  -5  -2  -6   -4.19    3.88
   5   2   6    3.11    4.02
   5   3  -7    2.50    3.92
  -5  -3   7   10.83    5.66
   5   3  -6   -1.15    3.66
  -5  -3   6   -2.11    4.33
   5   3  -5   82.37    8.26
  -5  -3   5   78.61    8.20
  -5  -3   5   73.14    7.78
   5   3  -5   82.01    7.92
   5   3  -4   11.18    3.31
  -5  -3   4    9.30    3.49
  -5  -3   4    4.33    2.82
   5   3  -4   12.68    3.91
  -5  -3   3 1194.31   27.02
  -5  -3   3 1222.41   27.94
   5   3  -3 1150.50   27.49
   5   3  -3 1116.64   26.03
  -5  -3   2  860.02   20.98
  -5  -3   2  848.77   21.03
  -5  -3   2  838.43   21.65
  -5  -3   2  808.72   22.40
   5   3  -2  782.48   22.06
   5   3  -2  810.42   20.21
   5   3  -2  860.66   21.30
   5   3  -2  834.28   20.52
  -5  -3   1  143.68    8.84
  -5  -3   1  147.25    9.11
  -5  -3   1  131.30    8.97
   5   3  -1  135.90    8.80
   5   3  -1  133.88    8.30
   5   3  -1  147.01    9.05
  -5  -3   0   26.93    4.33
  -5  -3   0   26.69    4.29
  -5  -3   0   24.24    4.35
   5   3   0   23.29    3.86
   5   3   0   25.21    4.30
   5   3   0   24.93    4.28
  -5  -3  -1 1473.29   30.85
  -5  -3  -1 1456.25   29.83
   5   3   1 1343.18   27.35
   5   3   1 1367.07   29.10
   5   3   1 1291.09   28.38
  -5  -3  -2  341.84   15.19
  -5  -3  -2  372.08   15.09
  -5  -3  -2  352.01   14.44
   5   3   2  305.93   12.48
   5   3   2  320.64   13.74
   5   3   2  313.66   14.14
   5   3   2  278.17   13.21
  -5  -3  -3   53.42    6.96
  -5  -3  -3   63.65    7.47
   5   3   3   52.57    6.37
   5   3   3   51.49    6.45
   5   3   3   58.24    6.95
  -5  -3  -4    3.16    3.26
   5   3   4   -2.43    3.19
   5   3   4   -4.49    5.10
   5   3   4    0.05    3.67
  -5  -3  -5  211.53   13.15
  -5  -4   6  186.51   13.07
   5   4  -6  208.57   13.51
   5   4  -5   31.82    5.88
  -5  -4   5   33.34    6.03
  -5  -4   5   48.84    6.86
   5   4  -5   36.96    5.89
   5   4  -4   18.63    4.96
  -5  -4   4   13.55    4.05
  -5  -4   4   13.98    3.94
   5   4  -4   15.40    3.90
  -5  -4   3  274.09   13.94
  -5  -4   3  258.21   13.48
   5   4  -3  254.37   13.30
   5   4  -3  252.88   12.98
  -5  -4   2  168.53   10.41
  -5  -4   2  160.84   10.22
  -5  -4   2  161.30   10.68
   5   4  -2  144.03    9.95
   5   4  -2  165.29    9.91
   5   4  -2  161.64    9.95
  -5  -4   1 2116.63   38.77
  -5  -4   1 2120.96   40.02
   5   4  -1 2031.79   39.05
   5   4  -1 2181.66   40.48
   5   4  -1 2113.07   39.03
  -5  -4   0   43.92    6.07
  -5  -4   0   41.36    5.96
   5   4   0   45.08    5.98
   5   4   0   41.32    6.09
   5   4   0   46.32    6.41
  -5  -4  -1  115.29    9.26
  -5  -4  -1  101.97    8.23
   5   4   1  120.45   10.22
   5   4   1  130.86   11.23
   5   4   1  120.11   10.67
   5   4   2  350.89   22.00
   5   4   2  332.22   22.14
   5   4   2  351.03   23.16
   5   5  -6   -2.21    4.84
   5   5  -5   -2.34    4.07
  -5  -5   5   -7.69    4.54
   5   5  -5  -15.33    5.84
   5   5  -4   42.52    7.40
  -5  -5   4   40.55    6.65
  -5  -5   4   45.86    6.97
   5   5  -4   43.05    7.22
   5   5  -3    1.69    4.42
  -5  -5   3   12.94    3.89
  -5  -5   3    1.97    3.60
   5   5  -3   11.82    5.89
   5   5  -2   56.51    9.36
  -5  -5   2   66.96    7.81
   5   5  -2   63.82   10.32
   5   5  -1  -15.85   12.36
   5   5  -1  -11.53    9.70
   6   0   3    0.69    4.13
   6   0   3    1.07    4.24
  -6   0  -4  114.12   10.60
   6   0   4  129.07   11.35
   6   0   4  147.12   12.34
  -6   0  -5    3.02    4.17
   6   0   5   13.72    5.28
   6   1  -1  504.87   19.05
   6   1   0   22.09    4.65
   6   1   0   17.15    3.91
  -6  -1  -1    9.76    4.06
   6   1   1   15.25    4.15
   6   1   1   10.10    3.34
   6   1   1   12.61    3.62
  -6  -1  -2   62.77    7.25
  -6  -1  -2   64.32    7.22
   6   1   2   72.73    7.02
   6   1   2   69.30    7.55
   6   1   2   70.88    7.32
  -6  -1  -3   27.55    5.42
  -6  -1  -3   24.10    5.21
  -6  -1  -3   30.58    5.52
   6   1   3   34.23    5.83
   6   1   3   26.78    5.22
   6   1   3   28.34    4.91
  -6  -1  -4  118.27    9.70
  -6  -1  -4  139.26   10.31
  -6  -1  -4  124.83   10.27
   6   1   4  135.39   10.77
   6   1   4  138.92   10.70
   6   1   4  124.90    9.70
  -6  -1  -5   27.46    6.02
  -6  -1  -5   23.73    5.13
  -6  -1  -5   24.95    5.85
   6   1   5   22.19    5.76
   6   1   5    8.93    3.99
  -6  -2   3  135.31    9.77
   6   2  -3  163.40   11.45
  -6  -2   2  252.72   13.58
   6   2  -2  268.48   13.75
   6   2  -2  288.84   13.50
   6   2  -2  248.09   13.10
  -6  -2   1   37.95    5.54
  -6  -2   1   39.48    5.99
   6   2  -1   52.62    6.36
   6   2  -1   41.09    5.56
   6   2  -1   40.59    5.41
  -6  -2   0  637.11   20.85
  -6  -2   0  627.06   20.65
  -6  -2   0  638.78   20.49
   6   2   0  590.63   19.33
   6   2   0  656.80   20.65
   6   2   0  622.90   20.11
  -6  -2  -1   61.74    7.07
  -6  -2  -1   55.95    6.57
  -6  -2  -1   55.09    6.22
   6   2   1   52.50    6.04
   6   2   1   72.84    7.39
   6   2   1   54.94    6.24
  -6  -2  -2  162.27   11.25
  -6  -2  -2  136.94    9.99
  -6  -2  -2  151.47   10.06
   6   2   2  146.51    9.65
   6   2   2  156.70   10.61
   6   2   2  137.66    9.91
  -6  -2  -3  277.99   14.45
  -6  -2  -3  353.99   16.28
  -6  -2  -3  322.74   15.55
   6   2   3  346.27   15.95
   6   2   3  319.11   16.02
   6   2   3  332.67   15.58
  -6  -2  -4  145.55   11.16
  -6  -2  -4  140.25   11.05
  -6  -2  -4  137.18   11.16
   6   2   4  150.09   11.49
   6   2   4  138.69   10.82
   6   2   4  129.49   10.10
  -6  -2  -5   41.93    7.33
  -6  -2  -5   40.52    7.56
  -6  -2  -5   31.48    7.09
   6   2   5   34.46    6.64
   6   2   5   33.55    6.61
   6   2   5   36.37    6.02
  -6  -3   6    2.88    4.70
   6   3  -5   34.14    5.89
  -6  -3   5   44.73    7.35
  -6  -3   5   32.32    6.38
   6   3  -5   38.06    7.14
   6   3  -4   -1.63    3.22
  -6  -3   4   -5.21    3.87
  -6  -3   4    1.45    3.30
   6   3  -4   -0.32    3.09
   6   3  -3  145.50    9.96
  -6  -3   3  140.83   10.11
  -6  -3   3  143.85   10.40
   6   3  -3  149.36   10.69
  -6  -3   2    2.44    2.92
  -6  -3   2   -7.02    3.61
  -6  -3   2   -1.71    3.23
   6   3  -2    1.33    2.94
   6   3  -2    0.19    2.79
   6   3  -2   -2.98    3.17
  -6  -3   1  679.40   20.63
  -6  -3   1  740.43   22.70
  -6  -3   1  685.27   22.41
   6   3  -1  699.59   21.65
   6   3  -1  697.37   20.89
   6   3  -1  724.06   21.97
  -6  -3   0  332.86   14.82
  -6  -3   0  352.46   15.96
  -6  -3   0  357.15   16.20
   6   3   0  301.28   13.97
   6   3   0  305.69   14.17
   6   3   0  333.64   15.10
  -6  -3  -1   50.98    6.72
  -6  -3  -1   46.23    6.39
  -6  -3  -1   46.73    6.54
   6   3   1   50.06    6.29
   6   3   1   50.40    6.33
   6   3   1   44.09    5.97
  -6  -3  -2   37.17    6.13
  -6  -3  -2   39.83    6.33
   6   3   2   35.68    5.72
   6   3   2   39.19    5.48
  -6  -3  -3  490.50   21.04
  -6  -3  -3  566.34   21.65
  -6  -3  -3  573.97   22.12
   6   3   3  580.80   21.60
   6   3   3  548.54   21.93
   6   3   3  521.09   20.74
  -6  -3  -4   71.42    8.55
  -6  -3  -4   59.46    8.04
  -6  -3  -4   68.90    8.86
   6   3   4   68.97    8.64
   6   3   4   68.39    9.35
   6   3   4   60.84    8.01
  -6  -3  -5   21.81    6.23
  -6  -3  -5   11.36    4.96
   6   3   5    7.35    4.61
   6   3   5   13.51    6.52
  -6  -4   6  135.65   12.01
   6   4  -6  146.01   12.74
   6   4  -5  100.24    9.86
  -6  -4   5   97.41   10.09
  -6  -4   5   75.90    8.88
   6   4  -5   85.15    9.32
  -6  -4   4  218.60   13.49
  -6  -4   4  206.17   13.35
   6   4  -4  207.34   13.15
   6   4  -4  202.71   12.62
   6   4  -3   60.19    6.84
  -6  -4   3   51.21    6.89
  -6  -4   3   56.65    7.06
   6   4  -3   61.73    7.56
  -6  -4   2   25.88    5.55
   6   4  -2   18.58    4.56
  -6  -4   1  190.75   12.02
  -6  -4   1  180.67   11.75
  -6  -4   1  181.89   11.99
   6   4  -1  177.28   11.70
   6   4  -1  157.93   10.42
   6   4  -1  181.48   11.70
  -6  -4   0   38.73    6.19
  -6  -4   0   43.86    6.51
  -6  -4   0   39.60    6.39
   6   4   0   44.57    6.34
   6   4   0   35.04    5.86
   6   4   0   32.02    5.96
  -6  -4  -1 1377.25   34.99
  -6  -4  -1 1368.31   35.44
  -6  -4  -1 1304.37   33.00
   6   4   1 1354.42   33.58
   6   4   1 1305.76   34.01
   6   4   1 1244.35   34.44
  -6  -4  -2    0.86    4.24
  -6  -4  -2    9.25    4.85
   6   4   2    2.91    4.06
   6   4   2    9.43    5.43
  -6  -4  -3   77.08    8.39
   6   4   3   77.28   14.10
   6   4   3   63.64   14.05
   6   5  -5   36.10    7.29
   6   5  -5   39.99    7.46
   6   5  -4    3.67    4.52
  -6  -5   4    1.91    5.22
  -6  -5   4    9.42    4.75
   6   5  -4    0.80    4.53
  -6  -5   3    0.16    3.75
  -6  -5   3    1.95    4.01
   6   5  -3    1.23    5.33
  -6  -5   2   62.42    8.37
   6   5  -2   67.38   10.02
  -6  -5   1   17.81    5.04
  -6  -5   1   15.74    4.97
   6   5  -1   20.89    7.65
   6   5  -1   27.24    9.06
   6   5   0   81.79   19.28
   6   5   0   81.55   18.02
   7   1   2    5.58    3.44
   7   1   2    5.65    4.00
   7   1   3    9.96    4.86
  -7  -1  -3   -4.83    4.11
   7   1   3   -3.15    4.50
   7   1   3   -0.78    4.21
   7   1   4   26.93    6.26
  -7  -1  -4   24.55    5.76
  -7  -1  -4   31.50    6.93
   7   1   4   22.95    6.21
   7   1   4   33.05    6.93
  -7  -2   2   26.30    5.58
  -7  -2   1  145.57   11.29
  -7  -2   1  123.38   10.40
   7   2  -1  135.56   11.72
   7   2  -1  162.13   12.16
   7   2  -1  133.15   11.21
  -7  -2   0   71.40    8.22
  -7  -2   0   65.75    8.11
  -7  -2   0   58.86    7.64
   7   2   0   54.49    7.54
   7   2   0   67.13    8.04
   7   2   0   51.97    7.27
  -7  -2  -1   68.39    8.19
  -7  -2  -1   65.32    7.99
   7   2   1   65.15    7.77
   7   2   1   61.95    7.62
  -7  -2  -2  391.20   18.87
  -7  -2  -2  384.84   18.34
   7   2   2  399.39   18.70
   7   2   2  365.87   17.50
  -7  -2  -3   17.87    5.46
  -7  -2  -3   16.95    5.00
  -7  -2  -3    9.70    4.75
   7   2   3   12.75    4.55
   7   2   3   -1.62    4.17
   7   2   3   12.30    3.68
  -7  -2  -4   48.65    8.14
  -7  -2  -4   62.43    8.77
  -7  -2  -4   57.37    8.84
   7   2   4   45.58    7.44
   7   2   4   50.77    7.47
   7   2   4   45.39    6.96
  -7  -3   4   -7.88    4.83
  -7  -3   4    1.96    5.27
   7   3  -4    6.12    4.49
  -7  -3   3   41.15    7.24
   7   3  -3   43.27    7.05
   7   3  -2    4.40    3.20
  -7  -3   2    9.72    4.84
  -7  -3   2   10.90    5.82
   7   3  -2   13.31    5.30
  -7  -3   1   86.01   12.07
  -7  -3   1  132.62   10.97
  -7  -3   1   85.60    9.11
   7   3  -1  109.52    9.47
   7   3  -1  126.35   10.23
   7   3  -1  130.48   10.71
  -7  -3   0   -2.50    4.36
  -7  -3   0   10.49    4.74
  -7  -3   0    2.36    3.55
   7   3   0    1.40    3.27
   7   3   0   -3.38    3.60
   7   3   0   10.11    4.40
  -7  -3  -1  330.16   17.28
  -7  -3  -1  315.63   17.03
  -7  -3  -1  301.14   15.91
   7   3   1  285.05   14.94
   7   3   1  311.26   16.27
   7   3   1  276.88   15.19
  -7  -3  -2   97.76   10.24
  -7  -3  -2  106.82   10.35
   7   3   2   99.23    9.68
   7   3   2  102.40    9.63
  -7  -3  -3    7.85    4.92
  -7  -3  -3   14.83    5.62
   7   3   3    9.72    4.52
   7   3   3   -1.79    4.17
  -7  -3  -4   32.09    7.09
   7   3   4   33.78    7.64
  -7  -4   3  123.60   11.17
   7   4  -3  114.98   10.61
  -7  -4   2  115.87   11.13
   7   4  -2  108.35   10.57
  -7  -4   1   44.50    7.00
  -7  -4   1   34.65    6.69
  -7  -4   1   53.30    7.89
   7   4  -1   40.71    6.71
   7   4  -1   44.71    6.67
   7   4  -1   39.29    6.85
  -7  -4   0   23.11    5.65
  -7  -4   0   28.67    6.78
  -7  -4   0   29.05    6.25
   7   4   0   27.07    5.64
   7   4   0   10.02    3.56
   7   4   0   20.17    5.11
  -7  -4  -1  113.61   11.26
  -7  -4  -1  118.85   11.46
  -7  -4  -1  112.49   10.87
   7   4   1   97.74   10.17
   7   4   1   94.67    9.77
   7   4   1  116.32   11.29
  -7  -4  -2   10.53    5.30
  -7  -4  -2    9.17    5.71
   7   4   2    2.57    4.63
   7   4   2    5.79    5.17
  -7  -5   1  -11.80    6.48
  -7  -5   1   -0.32    4.66
   7   5  -1    4.03    5.88
   7   5  -1    7.33    8.52
  -7  -5   0   50.05    8.62
   7   5   0   45.91   12.50
   7   5   0   64.79   15.45
   8   3  -1   25.53    6.43
   8   3  -1   28.14    6.40
  -8  -3   0    9.83    5.31
   8   3   0   10.06    5.26
   0   0   0    0.00    0.00


TITL diethyl_ether_phase_beta_2_15GPa in P2(1)/c
REM P2(1)/c (#14 in standard setting)
CELL 0.71073   6.794756   8.095238   7.725917  90.0000  93.6212  90.0000
ZERR    4.00   0.000262   0.001188   0.000222   0.0000   0.0032   0.0000
LATT  1
SYMM -x, y+1/2,-z+1/2
SFAC C H O
UNIT 16.00 40.00 4.00
TREF
HKLF 4
END
_computing_structure_solution     'SHELXT 2018/2 (Sheldrick, 2018)'
;
_shelx_hkl_checksum              29647
_olex2_submission_special_instructions 'No special instructions were received'
loop_
_space_group_symop_operation_xyz
'x, y, z'
'-x, y+1/2, -z+1/2'
'-x, -y, -z'
'x, -y-1/2, z-1/2'
loop_
_atom_site_label
_atom_site_type_symbol
_atom_site_fract_x
_atom_site_fract_y
_atom_site_fract_z
_atom_site_U_iso_or_equiv
_atom_site_adp_type
_atom_site_occupancy
_atom_site_site_symmetry_order
_atom_site_calc_flag
_atom_site_refinement_flags_posn
_atom_site_refinement_flags_adp
_atom_site_refinement_flags_occupancy
_atom_site_disorder_assembly
_atom_site_disorder_group
O1 O 0.17730(13) 0.3155(3) 0.16712(12) 0.0317(9) Uani 1 1 d . . . . .
C1 C 0.0747(2) 0.4556(3) 0.23053(18) 0.0282(10) Uani 1 1 d . . . . .
H11 H 0.033284 0.528400 0.135343 0.034 Uiso 1 1 calc R U . . .
H12 H 0.160117 0.517092 0.312664 0.034 Uiso 1 1 calc R U . . .
C2 C -0.1022(2) 0.3919(3) 0.31758(18) 0.0336(8) Uani 1 1 d . . . . .
H21 H -0.183929 0.328916 0.235931 0.050 Uiso 1 1 calc R U . . .
H23 H -0.176267 0.483315 0.358649 0.050 Uiso 1 1 calc R U . . .
H22 H -0.059370 0.322789 0.413669 0.050 Uiso 1 1 calc R U . . .
C3 C 0.3452(2) 0.3685(4) 0.08107(18) 0.0343(10) Uani 1 1 d . . . . .
H31 H 0.424990 0.442146 0.155577 0.041 Uiso 1 1 calc R U . . .
H32 H 0.303901 0.427692 -0.024215 0.041 Uiso 1 1 calc R U . . .
C4 C 0.4633(2) 0.2178(4) 0.0378(2) 0.0346(10) Uani 1 1 d . . . . .
H42 H 0.384843 0.147670 -0.039303 0.052 Uiso 1 1 calc R U . . .
H41 H 0.500664 0.158572 0.142367 0.052 Uiso 1 1 calc R U . . .
H43 H 0.579618 0.251431 -0.017272 0.052 Uiso 1 1 calc R U . . .
loop_
_atom_site_aniso_label
_atom_site_aniso_U_11
_atom_site_aniso_U_22
_atom_site_aniso_U_33
_atom_site_aniso_U_23
_atom_site_aniso_U_13
_atom_site_aniso_U_12
O1 0.0277(8) 0.032(3) 0.0369(6) -0.0041(6) 0.0127(5) -0.0021(5)
C1 0.0293(9) 0.025(4) 0.0301(7) -0.0012(8) 0.0024(6) 0.0019(8)
C2 0.0298(10) 0.034(3) 0.0377(8) -0.0047(9) 0.0089(7) 0.0044(8)
C3 0.0279(11) 0.044(4) 0.0321(8) 0.0033(8) 0.0088(8) -0.0019(9)
C4 0.0283(10) 0.042(4) 0.0345(7) -0.0044(9) 0.0078(7) -0.0011(9)
loop_
_atom_type_symbol
_atom_type_description
_atom_type_scat_dispersion_real
_atom_type_scat_dispersion_imag
_atom_type_scat_source
C C 0.0033 0.0016 'International Tables Vol C Tables 4.2.6.8 and 6.1.1.4'
H H 0.0000 0.0000 'International Tables Vol C Tables 4.2.6.8 and 6.1.1.4'
O O 0.0106 0.0060 'International Tables Vol C Tables 4.2.6.8 and 6.1.1.4'
loop_
_geom_angle_atom_site_label_1
_geom_angle_atom_site_label_2
_geom_angle_atom_site_label_3
_geom_angle
_geom_angle_site_symmetry_1
_geom_angle_site_symmetry_3
_geom_angle_publ_flag
C3 O1 C1 110.0(2) . . ?
O1 C1 H11 110.2 . . ?
O1 C1 H12 110.2 . . ?
O1 C1 C2 107.5(2) . . ?
H11 C1 H12 108.5 . . ?
C2 C1 H11 110.2 . . ?
C2 C1 H12 110.2 . . ?
C1 C2 H21 109.5 . . ?
C1 C2 H23 109.5 . . ?
C1 C2 H22 109.5 . . ?
H21 C2 H23 109.5 . . ?
H21 C2 H22 109.5 . . ?
H23 C2 H22 109.5 . . ?
O1 C3 H31 110.1 . . ?
O1 C3 H32 110.1 . . ?
O1 C3 C4 108.2(3) . . ?
H31 C3 H32 108.4 . . ?
C4 C3 H31 110.1 . . ?
C4 C3 H32 110.1 . . ?
C3 C4 H42 109.5 . . ?
C3 C4 H41 109.5 . . ?
C3 C4 H43 109.5 . . ?
H42 C4 H41 109.5 . . ?
H42 C4 H43 109.5 . . ?
H41 C4 H43 109.5 . . ?
loop_
_geom_bond_atom_site_label_1
_geom_bond_atom_site_label_2
_geom_bond_distance
_geom_bond_site_symmetry_2
_geom_bond_publ_flag
O1 C1 1.434(3) . ?
O1 C3 1.423(2) . ?
C1 H11 0.9700 . ?
C1 H12 0.9700 . ?
C1 C2 1.505(3) . ?
C2 H21 0.9600 . ?
C2 H23 0.9600 . ?
C2 H22 0.9600 . ?
C3 H31 0.9700 . ?
C3 H32 0.9700 . ?
C3 C4 1.509(4) . ?
C4 H42 0.9600 . ?
C4 H41 0.9600 . ?
C4 H43 0.9600 . ?
loop_
_geom_torsion_atom_site_label_1
_geom_torsion_atom_site_label_2
_geom_torsion_atom_site_label_3
_geom_torsion_atom_site_label_4
_geom_torsion
_geom_torsion_site_symmetry_1
_geom_torsion_site_symmetry_2
_geom_torsion_site_symmetry_3
_geom_torsion_site_symmetry_4
_geom_torsion_publ_flag
C1 O1 C3 C4 172.54(12) . . . . ?
C3 O1 C1 C2 179.20(9) . . . . ?
