#------------------------------------------------------------------------------
#$Date: 2024-02-05 14:09:55 +0200 (Mon, 05 Feb 2024) $
#$Revision: 289697 $
#$URL: file:///home/coder/svn-repositories/cod/cif/1/57/04/1570442.cif $
#------------------------------------------------------------------------------
#
# This file is available in the Crystallography Open Database (COD),
# http://www.crystallography.net/
#
# All data on this site have been placed in the public domain by the
# contributors.
#
data_1570442
loop_
_publ_author_name
'Sacharczuk, Natalia'
'Olejniczak, Anna'
'Bujak, Maciej'
'Dziubek, Kamil Filip'
'Katrusiak, Andrzej'
'Podsiad&#x142;o, Marcin'
_publ_section_title
;
 Conformation-aggregation interplay in the simplest aliphatic ethers
 probed under high pressure.
;
_journal_issue                   'Pt 1'
_journal_name_full               IUCrJ
_journal_page_first              57
_journal_page_last               61
_journal_paper_doi               10.1107/S2052252523009995
_journal_volume                  11
_journal_year                    2024
_chemical_formula_moiety         'C4 H10 O'
_chemical_formula_sum            'C4 H10 O'
_chemical_formula_weight         74.12
_chemical_name_systematic        'diethyl ether'
_space_group_crystal_system      monoclinic
_space_group_IT_number           14
_space_group_name_Hall           '-P 2ybc'
_space_group_name_H-M_alt        'P 1 21/c 1'
_atom_sites_solution_hydrogens   geom
_atom_sites_solution_primary     dual
_audit_creation_method
;
Olex2 1.5
(compiled 2022.04.07 svn.rca3783a0 for OlexSys, GUI svn.r6498)
;
_cell_angle_alpha                90
_cell_angle_beta                 93.784(4)
_cell_angle_gamma                90
_cell_formula_units_Z            4
_cell_length_a                   6.7612(3)
_cell_length_b                   8.0271(15)
_cell_length_c                   7.6687(3)
_cell_measurement_reflns_used    1414
_cell_measurement_temperature    295(2)
_cell_measurement_theta_max      26.3430
_cell_measurement_theta_min      4.6240
_cell_volume                     415.29(8)
_computing_cell_refinement       'CrysAlisPro 1.171.42.49 (Rigaku OD, 2022)'
_computing_data_collection       'CrysAlisPro 1.171.42.49 (Rigaku OD, 2022)'
_computing_data_reduction        'CrysAlisPro 1.171.42.49 (Rigaku OD, 2022)'
_computing_molecular_graphics    'Olex2 1.5 (Dolomanov et al., 2009)'
_computing_publication_material  'Olex2 1.5 (Dolomanov et al., 2009)'
_computing_structure_refinement  'SHELXL 2018/3 (Sheldrick, 2015)'
_computing_structure_solution    'SHELXT 2018/2 (Sheldrick, 2018)'
_diffrn_ambient_environment      'diamond-anvil cell'
_diffrn_ambient_pressure         2650000
_diffrn_ambient_temperature      295(2)
_diffrn_measured_fraction_theta_full 0.471
_diffrn_measured_fraction_theta_max 0.440
_diffrn_measurement_device_type  'KUMA KM4-CCD, Eos'
_diffrn_measurement_method       '\f- and \w-scans'
_diffrn_radiation_type           MoK\a
_diffrn_radiation_wavelength     0.71073
_diffrn_reflns_av_R_equivalents  0.0216
_diffrn_reflns_av_unetI/netI     0.0160
_diffrn_reflns_Laue_measured_fraction_full 0.471
_diffrn_reflns_Laue_measured_fraction_max 0.440
_diffrn_reflns_limit_h_max       7
_diffrn_reflns_limit_h_min       -8
_diffrn_reflns_limit_k_max       5
_diffrn_reflns_limit_k_min       -5
_diffrn_reflns_limit_l_max       9
_diffrn_reflns_limit_l_min       -9
_diffrn_reflns_number            2120
_diffrn_reflns_point_group_measured_fraction_full 0.471
_diffrn_reflns_point_group_measured_fraction_max 0.440
_diffrn_reflns_theta_full        25.242
_diffrn_reflns_theta_max         26.394
_diffrn_reflns_theta_min         4.872
_exptl_absorpt_coefficient_mu    0.082
_exptl_absorpt_correction_T_max  1.00000
_exptl_absorpt_correction_T_min  0.14004
_exptl_absorpt_correction_type   multi-scan
_exptl_absorpt_process_details
;
CrysAlisPro 1.171.42.49 (Rigaku Oxford Diffraction, 2022)
Empirical absorption correction using spherical harmonics,
implemented in SCALE3 ABSPACK scaling algorithm.
;
_exptl_crystal_colour            colourless
_exptl_crystal_density_diffrn    1.185
_exptl_crystal_description       disc
_exptl_crystal_F_000             168
_exptl_crystal_size_max          0.40
_exptl_crystal_size_mid          0.37
_exptl_crystal_size_min          0.24
_refine_diff_density_max         0.137
_refine_diff_density_min         -0.152
_refine_diff_density_rms         0.036
_refine_ls_extinction_method     none
_refine_ls_goodness_of_fit_ref   1.088
_refine_ls_hydrogen_treatment    constr
_refine_ls_matrix_type           full
_refine_ls_number_parameters     48
_refine_ls_number_reflns         375
_refine_ls_number_restraints     0
_refine_ls_restrained_S_all      1.088
_refine_ls_R_factor_all          0.0423
_refine_ls_R_factor_gt           0.0388
_refine_ls_shift/su_max          0.000
_refine_ls_shift/su_mean         0.000
_refine_ls_structure_factor_coef Fsqd
_refine_ls_weighting_details
'w=1/[\s^2^(Fo^2^)+(0.0819P)^2^+0.0302P] where P=(Fo^2^+2Fc^2^)/3'
_refine_ls_weighting_scheme      calc
_refine_ls_wR_factor_gt          0.1073
_refine_ls_wR_factor_ref         0.1110
_reflns_Friedel_coverage         0.000
_reflns_number_gt                342
_reflns_number_total             375
_reflns_threshold_expression     'I > 2\s(I)'
_cod_data_source_file            lq5055.cif
_cod_data_source_block           diethyl_ether_phase_beta_2_65GPa
_cod_depositor_comments
'Adding full bibliography for 1570433--1570452.cif.'
_cod_database_code               1570442
_shelx_shelxl_version_number     2018/3
_shelx_space_group_comment
;
The symmetry employed for this shelxl refinement is uniquely defined
by the following loop, which should always be used as a source of
symmetry information in preference to the above space-group names.
They are only intended as comments.
;
_exptl_absorpt_special_details
;
Data were collected at room temperature (295(2) K) and pressure of 2.65(2) GPa
(2650000 kPa).
;
_olex2_refinement_description
;
1. Fixed Uiso
 At 1.2 times of:
  All C(H,H) groups
 At 1.5 times of:
  All C(H,H,H) groups
2.a Secondary CH2 refined with riding coordinates:
 C1(H11,H12), C3(H31,H32)
2.b Idealised Me refined as rotating group:
 C2(H21,H23,H22), C4(H42,H41,H43)
;
_shelx_res_file
;
TITL 7ede_a.res in P2(1)/c
    7ede.res
    created by SHELXL-2018/3 at 12:28:00 on 22-Dec-2022
REM Old TITL 7ede in P2(1)/c
REM SHELXT solution in P2(1)/c: R1 0.171, Rweak 0.369, Alpha 0.104
REM <I/s> 0.448 for 29 systematic absences, Orientation as input
REM Formula found by SHELXT: C4 O
CELL 0.71073 6.7612 8.0271 7.6687 90 93.784 90
ZERR 4 0.0003 0.0015 0.0003 0 0.004 0
LATT 1
SYMM -X,0.5+Y,0.5-Z
SFAC C H O
UNIT 16 40 4

L.S. 50
PLAN  10
CONF
BOND
list 4
fmap 2 53
MORE -1
BOND $H
ACTA
REM <olex2.extras>
REM <HklSrc "%.\\7ede.hkl">
REM </olex2.extras>

WGHT    0.081900    0.030200
FVAR       2.76360
O1    3    0.176215    0.315487    0.166485    11.00000    0.02548    0.02400 =
         0.03503   -0.00312    0.01112   -0.00230
C1    1    0.073505    0.456648    0.229989    11.00000    0.02547    0.02767 =
         0.02738   -0.00284    0.00243    0.00152
AFIX  23
H11   2    0.031527    0.529766    0.133855    11.00000   -1.20000
H12   2    0.159858    0.518882    0.312373    11.00000   -1.20000
AFIX   0
C2    1   -0.103892    0.393249    0.318252    11.00000    0.02656    0.03670 =
         0.03313   -0.00347    0.00773    0.00238
AFIX 137
H21   2   -0.186243    0.329073    0.236584    11.00000   -1.50000
H23   2   -0.178158    0.485834    0.358769    11.00000   -1.50000
H22   2   -0.060485    0.324379    0.415731    11.00000   -1.50000
AFIX   0
C3    1    0.345000    0.369048    0.079991    11.00000    0.02493    0.04616 =
         0.02990    0.00264    0.00873   -0.00108
AFIX  23
H31   2    0.425138    0.443431    0.155130    11.00000   -1.20000
H32   2    0.303322    0.428584   -0.026219    11.00000   -1.20000
AFIX   0
C4    1    0.463710    0.217647    0.036807    11.00000    0.02678    0.03022 =
         0.03089   -0.00303    0.00531   -0.00172
AFIX 137
H42   2    0.384657    0.146419   -0.040428    11.00000   -1.50000
H41   2    0.502092    0.158327    0.142362    11.00000   -1.50000
H43   2    0.580088    0.251639   -0.019055    11.00000   -1.50000
AFIX   0
HKLF 4




REM  7ede_a.res in P2(1)/c
REM wR2 = 0.1110, GooF = S = 1.088, Restrained GooF = 1.088 for all data
REM R1 = 0.0388 for 342 Fo > 4sig(Fo) and 0.0423 for all 375 data
REM 48 parameters refined using 0 restraints

END

WGHT      0.0819      0.0302

REM Highest difference peak  0.137,  deepest hole -0.152,  1-sigma level  0.036
Q1    1   0.2716  0.1717  0.1358  11.00000  0.05    0.12
Q2    1   0.2839  0.5205  0.0748  11.00000  0.05    0.11
Q3    1  -0.1779  0.5564  0.3965  11.00000  0.05    0.10
Q4    1   0.2993  0.4801 -0.0033  11.00000  0.05    0.10
Q5    1  -0.1613  0.2315  0.2412  11.00000  0.05    0.10
Q6    1   0.3547  0.0233  0.0558  11.00000  0.05    0.09
Q7    1   0.4252  0.4818  0.0653  11.00000  0.05    0.09
Q8    1   0.4021  0.4794  0.1772  11.00000  0.05    0.09
Q9    1   0.5312  0.3470  0.0204  11.00000  0.05    0.09
Q10   1   0.4598  0.3759 -0.1327  11.00000  0.05    0.09
;
_shelx_res_checksum              74285
_shelx_hkl_file
;
   0   0   2 1643.76   17.34
   0   0  -2 1686.01   17.37
   0   0   2 1667.77   17.97
   0   0  -2 1685.35   18.16
   0   0  -2 1695.79   17.68
   0   0   2 1658.65   17.16
   0   0   3    0.10    0.98
   0   0   3   -0.04    0.83
   0   0  -3    0.00    0.73
   0   0  -3    0.26    0.84
   0   0  -3    0.04    0.76
   0   0  -3    0.44    0.96
   0   0  -3    0.47    0.78
   0   0   3   -1.21    1.20
   0   0   4    0.71    1.31
   0   0  -4    0.20    1.67
   0   0  -4    2.84    1.68
   0   0   4    2.37    1.61
   0   0  -4    0.19    1.07
   0   0   4    1.79    1.31
   0   0   4   -2.91    1.93
   0   0  -4   -1.27    1.35
   0   0  -4    1.46    1.49
   0   0  -5   -0.43    1.86
   0   0  -5   -0.06    1.55
   0   0   5    4.67    2.24
   0   0  -5    0.02    1.44
   0   0   5    3.29    2.46
   0   0  -5   -1.09    1.78
   0   0   5   -2.91    2.37
   0   0   6  226.55   12.36
   0   0   6  208.06   12.21
   0   0  -6  179.41   10.65
   0   0  -6  197.72   11.65
   0   0  -6  198.33   11.93
   0   0  -7    1.94    3.76
   0   0   7    0.53    3.14
   0   0   7    2.29    4.24
   0   0  -7   -5.96    4.09
   0   0   7   -1.45    3.09
   0   0  -7   -1.10    2.46
   0  -1  -2 7027.89   35.69
   0   1   2 7053.92   36.08
   0   1   2 7075.25   36.70
   0  -1  -2 7070.52   38.86
   0   1   2 7096.48   38.87
   0   1   2 7055.94   38.91
   0  -1  -2 7041.67   39.32
   0  -1  -2 7074.38   36.95
   0   1   3   64.41    3.40
   0  -1  -3   57.44    4.27
   0   1   3   53.80    3.96
   0  -1  -3   59.88    3.33
   0   1   3   56.32    4.34
   0  -1  -3   64.23    4.03
   0   1   3   65.55    4.17
   0  -1  -3   58.10    4.26
   0   1   3   57.09    4.28
   0  -1  -3   59.90    4.10
   0  -1  -4   42.12    4.04
   0   1   4   42.99    4.23
   0   1   4   38.68    4.10
   0   1   4   43.09    3.82
   0  -1  -4   45.09    3.36
   0   1   4   41.19    3.21
   0  -1  -4   39.24    4.27
   0  -1  -4   44.95    4.11
   0  -1  -4   40.69    4.38
   0   1   4   40.90    4.27
   0  -1  -5   57.67    5.63
   0   1   5   64.56    5.19
   0  -1  -5   61.29    5.26
   0  -1  -5   64.50    5.68
   0   1   5   69.03    6.03
   0  -1  -5   59.12    5.76
   0   1   5   59.71    6.05
   0   1   5   65.14    5.94
   0  -1  -6  132.15    9.32
   0  -1  -6  126.33    9.30
   0   1   6  137.45    9.77
   0   1   6  135.01    8.14
   0  -1  -6  130.28    9.19
   0   1   6  126.50    9.08
   0   1   7  112.38    9.65
   0  -1  -7  101.40    9.05
   0   1   7  107.87    9.89
   0  -1  -7   95.60    8.92
   0  -1  -7   94.37    9.34
   0   1   8   71.15    8.56
   0  -1  -8   73.85    9.68
   0  -1  -8   65.81    8.14
   0  -1  -8   75.16    9.05
   0   1   8   78.00    9.45
   0   1   9   51.38    8.42
   0  -1  -9   57.74    9.81
   0   1   9   48.89    8.25
   0  -1  -9   35.00    9.80
   0  -1  -9   44.90    7.53
   0  -2  -2 3107.83   38.85
   0   2   3    0.83    1.23
   0  -2  -3   -1.89    1.50
   0   2   3    0.56    1.15
   0   2   3    1.48    1.09
   0  -2  -3    1.05    1.05
   0  -2  -3   -1.74    1.54
   0  -2  -3    0.35    1.16
   0   2   3    2.63    1.25
   0   2   3   -1.36    1.59
   0  -2  -3    1.61    0.97
   0   2   4  103.48    6.58
   0   2   4  106.33    6.94
   0  -2  -4   88.62    6.71
   0   2   4  101.27    6.26
   0  -2  -4   98.85    4.87
   0   2   4   94.57    6.58
   0  -2  -4   97.56    6.20
   0  -2  -4   87.58    6.18
   0  -2  -4   98.68    6.84
   0   2   5  138.78    8.09
   0  -2  -5  133.42    8.97
   0  -2  -5  145.32    9.40
   0   2   5  126.03    8.33
   0  -2  -5  136.13    7.96
   0  -2  -5  128.41    8.36
   0   2   5  125.26    8.46
   0   2   5  125.46    8.64
   0  -2  -6  371.62   16.25
   0   2   6  345.96   15.44
   0  -2  -6  366.08   16.09
   0  -2  -6  356.99   13.93
   0  -2  -6  336.60   14.99
   0   2   6  341.40   15.11
   0   2   6  374.38   14.29
   0   2   7   22.64    6.51
   0  -2  -7   50.53    7.17
   0  -2  -7   33.84    5.65
   0  -2  -7   44.93    6.28
   0   2   7   44.65    6.76
   0   2   7   45.04    6.46
   0  -2  -8   52.34    8.62
   0   2   8   79.80    9.24
   0  -2  -8   84.11    9.35
   0   2   8   85.92    9.51
   0  -2  -8   84.39    9.54
   0   2   9  143.27   13.37
   0  -2  -9  127.69   12.36
   0   2   9  159.95   14.40
   0  -2  -9  127.54   12.47
   0   2   9  138.05   12.90
   0  -2  -9  121.05   13.79
   0  -3  -4  241.15   12.61
   0  -3  -4  228.30   12.54
   0  -3  -4  217.16   11.65
   0   3   4  218.72   12.51
   0   3   4  224.34   13.25
   0  -3  -5  119.18    8.74
   0   3   5  109.26    8.75
   0  -3  -5  125.53    8.84
   0   3   5  108.05    7.90
   0   3   5  116.86    8.85
   0   3   5  107.98    8.19
   0  -3  -5  117.35    8.95
   0  -3  -6  112.71    9.39
   0  -3  -6  100.52    8.82
   0  -3  -6   92.64    8.17
   0   3   6   98.95    8.87
   0  -3  -6  115.48    9.83
   0   3   6   95.30    8.71
   0   3   6  104.65    8.54
   0   3   7    4.01    4.62
   0  -3  -7   13.50    4.61
   0  -3  -7   32.67    6.04
   0  -3  -7   30.68    5.73
   0   3   7   25.88    5.53
   0   3   7   21.05    5.34
   0   3   8  461.24   21.47
   0  -3  -8  484.30   22.20
   0   3   8  474.38   21.96
   0  -3  -8  473.01   22.21
   0  -3  -9   67.05   11.17
   0   3   9   17.32   10.49
   0  -4  -7   31.09   10.01
   0  -4  -7   21.41    8.19
   0   4   7   15.62    7.10
   0  -4  -8  102.68   14.76
   0   4   8   86.26   13.22
   1   0  -6  597.48   21.38
   1   0  -6  544.09   18.67
  -1   0   6  575.36   20.46
  -1   0   6  592.46   21.02
   1   0  -6  515.58   19.11
   1   0  -5    0.34    1.57
  -1   0   5    0.80    2.14
  -1   0   5    1.53    2.14
  -1   0   5   -2.36    2.14
   1   0  -5    0.47    1.90
   1   0  -5    1.16    1.99
   1   0  -4 1277.75   22.02
   1   0  -4 1214.67   22.99
   1   0  -4 1236.50   25.69
   1   0  -4 1233.90   22.46
  -1   0   4 1237.70   23.41
  -1   0   4 1282.60   22.35
  -1   0   4 1264.24   21.78
  -1   0   4 1326.86   24.77
   1   0  -3    0.68    0.89
  -1   0   3    0.50    0.88
   1   0  -3    0.84    1.05
  -1   0   3    1.10    0.99
   1   0  -3    0.05    0.86
  -1   0   3   -1.33    1.16
   1   0  -2  556.59   11.15
   1   0  -2  599.08   11.13
  -1   0   2  582.04   11.07
  -1   0   2  553.93   11.64
  -1   0   2  554.24   11.20
  -1   0  -3    1.67    1.17
   1   0   3    1.02    1.12
  -1   0  -3   -0.92    0.90
  -1   0  -3   -0.76    1.03
  -1   0  -3   -1.11    0.91
   1   0   3    0.37    0.91
   1   0   3   -0.08    1.07
  -1   0  -3   -0.64    1.03
   1   0   4  541.33   14.37
  -1   0  -4  582.07   14.67
   1   0   4  563.95   15.21
  -1   0  -4  539.46   14.22
  -1   0  -4  545.37   11.29
   1   0   4  518.53   14.08
  -1   0  -4  533.09   14.59
   1   0   4  551.33   11.66
  -1   0  -4  573.13   14.62
   1   0   5    1.91    1.95
   1   0   5   -1.49    2.03
  -1   0  -5   -1.08    1.69
  -1   0  -5   -0.02    1.64
  -1   0  -5    0.22    1.67
  -1   0  -5    1.88    1.75
   1   0   5   -0.40    2.31
   1   0   6    1.94    2.80
  -1   0  -6   -0.59    2.77
   1   0   6   -0.06    2.77
  -1   0  -6    0.70    2.27
  -1   0  -6    0.94    1.96
  -1   0  -6   -1.33    2.34
   1   0   6   -1.07    2.50
   1   0   6    2.95    3.38
  -1   0  -7   -1.94    2.65
   1   0   7    0.37    3.65
   1   0   7    2.76    3.21
  -1   0  -7   -0.08    2.84
   1   0   7   -4.21    3.34
  -1   0  -7   -1.96    3.30
   1   0   8    4.01    4.55
  -1   0  -8   11.57    4.74
  -1   0  -8   -5.28    5.95
   1   0   8   -2.17    3.73
   1   0   8   -0.14    3.94
  -1   0  -8    2.56    3.96
  -1   1   8   -0.66    4.08
   1  -1  -8   -6.59    4.59
  -1   1   8    4.66    3.83
  -1   1   8   -0.92    4.22
   1  -1  -8    1.32    3.59
   1  -1  -7   49.39    5.97
   1  -1  -7   56.20    7.56
  -1   1   7   50.79    7.46
  -1   1   7   60.32    7.67
  -1   1   7   48.43    5.89
   1  -1  -7   51.33    6.66
   1  -1  -7   51.04    7.00
  -1   1   7   47.69    6.52
  -1   1   6  353.39   14.27
   1  -1  -6  356.86   14.32
  -1   1   6  367.01   14.58
   1  -1  -6  336.05   14.70
   1  -1  -6  358.83   15.09
  -1   1   6  360.40   15.53
   1  -1  -6  338.26   14.87
  -1   1   6  365.78   15.84
  -1   1   5  169.16    8.79
  -1   1   5  170.18    9.76
  -1   1   5  182.51    9.39
   1  -1  -5  150.83    8.91
   1  -1  -5  162.71    8.81
   1  -1  -5  158.58    8.68
  -1   1   5  162.44    9.10
   1  -1  -5  162.55    9.38
  -1   1   4  216.04    7.35
  -1   1   4  201.15    8.95
   1  -1  -4  194.10    8.99
   1  -1  -4  213.16    9.52
  -1   1   4  201.96    8.80
   1  -1  -4  199.24    8.36
   1  -1  -4  224.34    7.41
   1  -1  -4  196.66    8.72
  -1   1   4  189.62    9.08
  -1   1   4  211.91    8.47
  -1   1   3  198.48    8.35
  -1   1   3  191.27    6.36
  -1   1   3  191.95    6.70
   1  -1  -3  228.79    8.46
  -1   1   3  180.93    7.74
  -1   1   3  198.88    7.78
   1  -1  -2 1774.65   20.10
  -1   1   2 1724.88   19.16
  -1   1   2 1805.84   20.00
  -1   1   2 1835.55   18.02
   1  -1  -2 1737.06   19.65
  -1   1   2 1816.37   20.77
   1  -1  -2 1820.07   19.91
  -1   1  -1 2133.14   19.79
   1  -1   1 2176.07   19.80
  -1  -1  -2  585.84   11.44
  -1   1  -2  601.54   11.12
   1   1   2  557.03   11.28
  -1  -1  -2  593.88   11.75
  -1   1  -2  580.32   12.48
   1  -1   2  594.21   10.96
   1   1   2  578.82   11.98
  -1   1  -2  581.34   22.33
  -1  -1  -2  576.14   11.83
   1   1   2  580.43   11.50
   1   1   2  568.64   11.61
  -1  -1  -2  566.26   11.21
  -1   1  -2  599.49   11.50
  -1   1  -2  595.92   12.04
  -1   1  -3    1.25    1.32
   1   1   3   -0.22    1.29
   1   1   3    1.95    1.39
  -1  -1  -3    1.68    0.84
   1   1   3    1.72    1.42
  -1  -1  -3    2.79    1.40
  -1   1  -3    3.23    1.43
  -1  -1  -3    3.02    1.62
  -1  -1  -3    0.18    1.23
  -1   1  -3    1.09    1.03
   1  -1   3   -0.74    1.33
   1  -1   3    1.24    1.28
  -1  -1  -3    3.03    1.13
   1   1   3    1.23    0.94
  -1   1  -3    1.73    1.21
   1   1   3    1.69    0.78
  -1  -1  -4 2229.14   30.67
  -1   1  -4 2143.58   35.48
   1   1   4 2207.17   30.53
   1   1   4 2171.68   27.19
  -1   1  -4 2186.70   30.84
   1  -1   4 2204.29   31.55
  -1  -1  -4 2197.73   30.74
  -1  -1  -4 2248.28   27.71
   1   1   4 2213.32   30.81
   1  -1   4 2158.57   30.44
  -1   1  -4 2221.02   32.42
  -1  -1  -4 2200.37   24.91
   1   1   4 2258.09   24.97
   1   1   4 2249.67   30.50
  -1   1  -4 2289.29   25.68
  -1  -1  -4 2290.84   31.02
   1   1   5    6.18    2.30
   1   1   5    3.56    2.41
  -1   1  -5    2.40    1.99
   1   1   5    3.72    2.35
  -1  -1  -5    2.84    2.13
  -1  -1  -5    3.86    2.23
  -1   1  -5    2.11    2.24
  -1  -1  -5    2.82    1.91
  -1  -1  -5    4.06    2.11
   1   1   5    8.55    3.02
   1  -1   5    2.94    2.12
   1  -1   5    1.79    2.36
  -1  -1  -6   60.40    6.91
   1  -1   6   66.38    6.64
   1   1   6   65.50    6.89
  -1   1  -6   66.94    7.64
   1   1   6   69.16    7.01
  -1  -1  -6   73.97    7.05
  -1   1  -6   60.78    7.78
   1   1   6   48.29    6.90
  -1  -1  -6   76.69    7.28
   1  -1   6   68.08    6.72
   1   1   7   23.02    4.89
   1   1   7   22.95    5.03
  -1  -1  -7   18.51    4.89
   1   1   7    7.74    5.32
  -1  -1  -7   32.76    5.80
  -1  -1  -7   23.87    4.76
  -1  -1  -8   85.23    8.95
  -1  -1  -8   75.04    9.10
   1   1   8   95.31   10.19
   1   1   8   88.66    9.82
  -1  -1  -8   92.79   10.05
   1   1   8   94.95    9.78
   1   1   9   46.55    8.03
   1   1   9   65.57   10.49
  -1  -1  -9   61.40    9.46
  -1  -1  -9   53.86    9.02
   1   1   9   51.57    8.81
  -1  -1  -9   63.80    9.45
  -1   2   9  148.05   13.87
   1  -2  -9  149.05   13.86
   1  -2  -8   57.50    8.53
   1  -2  -8   62.21    8.31
  -1   2   8   60.31    7.93
  -1   2   8   70.97    9.30
   1  -2  -7  408.48   17.17
   1  -2  -7  394.62   16.93
  -1   2   7  406.82   16.79
  -1   2   7  413.69   17.14
   1  -2  -7  385.25   18.01
  -1   2   7  417.10   18.46
  -1   2   7  424.33   18.75
   1  -2  -7  443.16   19.57
  -1   2   6   87.47    8.03
  -1   2   6   87.33    7.40
   1  -2  -6   92.03    7.77
  -1   2   6   93.19    8.45
   1  -2  -6   90.85    8.40
   1  -2  -6   89.11    8.13
  -1   2   6   86.79    7.50
   1  -2  -6   87.15    7.19
   1  -2  -5  238.32   11.96
   1  -2  -5  216.76   10.07
   1  -2  -5  224.90   10.83
   1  -2  -5  231.42   11.73
  -1   2   5  228.08   10.73
  -1   2   5  222.43   10.07
  -1   2   5  231.02   11.42
  -1   2   5  228.49   11.43
  -1   2   4 1506.64   26.20
   1  -2  -4 1559.32   25.63
   1  -2  -4 1467.36   21.36
  -1   2   4 1540.78   21.17
  -1   2   4 1492.87   23.25
   1  -2  -4 1484.93   26.68
  -1   2   4 1516.23   26.44
  -1   2   4 1479.87   26.07
   1  -2  -4 1513.48   23.45
   1  -2  -4 1560.63   27.30
   1  -2  -3  683.52   13.82
   1  -2  -3  627.61   12.91
   1  -2  -3  644.97   14.86
   1  -2  -3  613.78   14.70
  -1   2   3  661.31   13.78
  -1   2   3  638.62   14.95
  -1   2   3  625.42   14.86
   1  -2  -3  716.95   16.46
  -1   2   3  660.97   13.25
  -1   2   3  655.33   15.10
  -1   2   2  324.43    9.22
   1  -2  -2  287.99    7.15
  -1   2   2  291.74    8.74
   1  -2  -2  275.99    8.63
   1  -2  -2  269.50    8.72
  -1   2   2  270.08    8.67
   1  -2  -2  293.02    9.08
   1  -2  -2  283.08    8.70
  -1   2   2  277.32    9.15
   1  -2  -1    0.99    0.78
  -1  -2  -3 5401.77   49.08
   1   2   3 5506.65   48.68
   1   2   3 5513.09   46.85
  -1  -2  -3 5502.92   50.15
  -1  -2  -3 5463.70   55.79
   1   2   3 5424.28   62.52
  -1  -2  -3 5499.66   48.35
   1   2   4  635.45   14.67
   1   2   4  588.57   16.47
  -1  -2  -4  679.12   15.69
  -1  -2  -4  612.01   16.77
   1   2   4  630.37   17.49
   1   2   4  654.11   17.38
  -1  -2  -4  659.60   17.45
  -1  -2  -4  624.52   17.05
  -1  -2  -5   -0.16    1.98
   1   2   5   -0.75    2.34
   1   2   5   -0.88    2.09
  -1  -2  -5    1.22    1.83
  -1  -2  -5    5.03    2.81
   1   2   5   -0.59    2.16
  -1  -2  -5    1.31    1.71
   1   2   5   -4.00    2.53
  -1  -2  -6   71.83    7.43
   1   2   6   64.24    6.88
  -1  -2  -6   72.52    7.23
  -1  -2  -6   59.34    6.70
   1   2   6   55.67    6.56
  -1  -2  -7   54.47    7.00
  -1  -2  -7   61.29    7.44
   1   2   7   54.51    6.91
  -1  -2  -7   55.80    7.12
   1   2   7   58.48    7.57
   1   2   8  130.73   11.59
  -1  -2  -8  135.27   11.59
   1   2   8  116.34   11.03
  -1  -2  -8  136.24   11.58
  -1  -2  -8  129.35   11.35
   1   2   9   10.41    5.51
  -1  -2  -9    1.65    3.56
  -1  -2  -9    6.18    4.25
   1   2   9   12.09    5.54
   1  -3  -8   20.15    4.95
  -1   3   8   34.16    6.81
  -1   3   8   22.45    5.55
   1  -3  -8   26.68    6.17
  -1   3   7  362.73   17.74
   1  -3  -7  392.99   17.50
  -1   3   7  340.07   16.69
  -1   3   7  389.46   17.25
   1  -3  -7  386.01   18.60
   1  -3  -7  392.46   18.64
   1  -3  -6 1058.16   27.99
   1  -3  -6 1120.39   26.08
   1  -3  -6 1118.03   27.14
  -1   3   6 1045.28   27.44
  -1   3   6 1057.80   26.69
  -1   3   6 1014.69   24.86
  -1   3   6 1054.87   27.68
   1  -3  -6 1081.52   28.96
  -1   3   5  109.72    7.90
   1  -3  -5  102.02    8.24
   1  -3  -5  103.92    7.19
  -1   3   5  109.14    8.09
  -1   3   5  101.89    7.92
  -1   3   5  101.28    7.85
   1  -3  -5  103.61    7.87
   1  -3  -5  101.56    8.20
  -1   3   4  173.72    9.47
   1  -3  -4  180.65    9.90
  -1   3   4  166.39    9.36
  -1   3   4  181.04    8.34
   1  -3  -4  174.95    9.52
   1  -3  -4  180.75    8.51
  -1   3   4  165.12    9.33
   1  -3  -4  166.93    9.13
   1  -3  -3  934.32   20.33
   1  -3  -3  831.86   19.08
  -1   3   3  866.96   23.94
   1  -3  -3  835.14   22.34
  -1   3   3  958.59   23.99
   1  -3  -3  919.46   20.83
  -1   3   3  935.00   24.67
   1   3   5  307.02   15.37
   1   3   5  334.93   14.61
  -1  -3  -5  315.60   16.56
   1   3   6   68.09    8.39
  -1  -3  -7   32.01    6.61
   1   3   7   32.19    5.54
  -1  -3  -7   35.56    6.06
   1   3   7   35.71    6.84
  -1  -3  -7   40.81    7.65
  -1  -3  -8   11.43    6.52
   1   3   8   36.40    7.36
  -1  -3  -8   42.38    7.95
  -1  -3  -8   28.05    6.65
   1   3   8    4.95    6.30
   1   3   8   40.70    7.05
   1  -4  -8   70.31   10.61
  -1   4   8   62.13    9.36
   1  -4  -8   69.95   10.96
  -1   4   8   53.29    9.68
   1  -4  -7   36.62    7.28
  -1   4   7   27.93    7.87
  -1   4   7   30.26    6.45
   1  -4  -7   30.33    7.11
   1  -4  -6  340.27   18.83
  -1   4   6  335.11   19.85
  -1   4   6  324.93   20.64
   1  -4  -6  383.37   20.52
   1  -4  -5   62.01    8.22
  -1   4   5   77.71   13.10
  -1   4   5   89.47   13.28
  -2   0   4 2130.16   33.05
  -2   0   3    0.11    1.40
   2   0  -3    0.53    1.34
  -2   0   3    3.53    1.46
  -2   0   2 3609.89   31.82
  -2   0   1    0.00    0.80
   2   0   0 1016.16   14.38
  -2   0   0  990.50   13.50
  -2   0   0  953.33   14.37
  -2   0   0 1014.83   14.39
   2   0   0  933.02   14.55
  -2   0   0  985.00   14.60
  -2   0  -1   -0.25    0.63
  -2   0  -1    0.44    0.48
  -2   0  -1    1.13    0.92
   2   0   1    0.84    1.03
   2   0   1    0.72    0.69
   2   0   1    0.94    0.77
  -2   0  -1    1.12    0.89
   2   0   2  602.75   12.19
  -2   0  -2  609.34   12.38
  -2   0  -2  595.44   13.31
  -2   0  -2  643.96   13.01
  -2   0  -2  610.69   10.45
  -2   0  -2  607.81   12.78
   2   0   2  624.00   12.97
   2   0   2  604.26   10.31
   2   0   2  623.80   13.65
   2   0   3   -1.63    1.48
  -2   0  -3   -2.30    1.49
   2   0   3   -2.10    1.62
   2   0   3   -1.30    1.90
  -2   0  -3   -2.23    1.67
  -2   0  -3   -4.79    2.16
  -2   0  -3    0.07    1.10
  -2   0  -3   -4.75    2.15
   2   0   3   -3.17    2.08
  -2   0  -3   -2.97    1.91
   2   0   3   -2.39    1.68
  -2   0  -4 9848.34   56.62
  -2   0  -4 9919.37   61.25
   2   0   4 9895.76   63.17
   2   0   4 9860.98   53.18
   2   0   4 9913.60   54.04
  -2   0  -4 9895.84   54.14
   2   0   4 9890.89   67.70
  -2   0  -4 9724.18   66.98
   2   0   4 9769.17   65.82
  -2   0  -4 9848.97   67.23
  -2   0  -4 9999.00   62.69
   2   0   4 9967.92   60.26
  -2   0  -5   -0.07    2.03
   2   0   5   -1.54    1.98
   2   0   5    1.06    1.72
   2   0   5   -0.44    2.26
  -2   0  -5   -0.55    2.53
  -2   0  -5    1.64    1.85
   2   0   5   -3.46    2.52
  -2   0  -5   -0.23    1.80
   2   0   6  179.75   10.72
  -2   0  -6  170.54   10.77
  -2   0  -6  183.85   10.82
  -2   0  -6  171.62   10.89
   2   0   6  166.92   10.50
   2   0   6  172.51   11.27
  -2   0  -6  171.30   11.20
   2   0   6  186.94   11.08
   2   0   7   -0.74    3.08
  -2   0  -7    0.52    3.24
   2   0   7    1.80    3.67
   2   0   7   -3.36    3.94
  -2   0  -7   -5.08    3.42
  -2   0  -7    1.48    3.47
  -2   0  -8   -9.43    4.82
   2   0   8    1.09    4.24
   2   0   8   -0.27    3.23
  -2   0  -8    0.62    3.99
  -2   1   7   89.47    9.94
  -2   1   7   73.03    7.60
   2  -1  -7   84.23    8.98
   2  -1  -7   75.36    8.42
  -2   1   7   89.42    9.53
   2  -1  -7   77.17    8.58
   2  -1  -6   30.35    5.24
  -2   1   6   29.74    4.82
  -2   1   6   40.58    5.56
   2  -1  -6   23.91    4.38
  -2   1   6   30.33    5.28
   2  -1  -6   28.59    5.04
   2  -1  -5   42.77    5.12
  -2   1   5   42.48    5.12
  -2   1   5   49.56    4.84
   2  -1  -5   42.26    5.03
  -2   1   5   45.01    5.08
   2  -1  -5   41.89    5.10
  -2   1   5   48.46    5.41
  -2   1   4 1317.36   23.73
  -2   1   4 1268.31   23.62
   2  -1  -4 1245.09   23.61
   2  -1  -4 1275.36   23.66
  -2   1   4 1306.30   22.37
   2  -1  -4 1245.24   24.54
   2  -1  -4 1247.52   23.40
  -2   1   4 1229.86   23.38
  -2   1   4 1274.24   19.38
   2  -1  -3 1519.45   23.50
  -2   1   3 1487.60   23.07
  -2   1   3 1521.35   22.47
   2  -1  -3 1540.79   22.81
  -2   1   3 1502.90   21.81
  -2   1   3 1529.54   17.44
   2  -1  -3 1519.81   22.55
  -2   1   3 1494.45   22.03
   2  -1  -2  245.38    6.79
   2  -1  -2  250.44    8.45
  -2   1   2  250.54    8.39
   2  -1  -2  233.81    7.33
  -2   1   2  232.96    7.22
  -2   1   2  252.82    8.37
  -2   1   2  255.51    6.76
   2  -1  -2  248.11    7.57
  -2   1   2  247.25    7.55
  -2   1   2  252.27    7.04
   2  -1  -1  431.80    9.56
  -2   1   1  425.97    9.18
  -2   1   1  412.66    9.50
  -2   1   1  407.57    9.87
  -2   1   1  419.06    9.57
  -2   1   0  816.68   13.39
  -2   1   0  840.06   13.30
  -2   1   0  818.20   13.65
  -2   1   0  865.71   12.21
   2  -1   1  806.95   14.24
  -2   1  -1  775.17   14.16
  -2   1  -1  829.64   12.53
  -2   1  -1  799.98   14.04
   2  -1   1  822.33   12.73
  -2   1  -1  818.33   14.11
  -2   1  -2 3540.37   31.32
  -2  -1  -2 3586.84   34.18
   2   1   2 3527.44   34.37
   2  -1   2 3473.05   31.38
  -2   1  -2 3476.20   31.98
  -2  -1  -2 3542.88   34.92
   2  -1   2 3497.12   30.61
  -2   1  -2 3541.19   33.37
  -2   1  -2 3528.88   30.07
  -2  -1  -2 3502.72   32.89
   2   1   2 3480.92   34.37
   2  -1   2 3512.30   26.20
   2   1   3  795.30   17.21
   2  -1   3  793.02   14.39
  -2   1  -3  789.63   15.11
   2  -1   3  765.56   15.36
   2  -1   3  782.83   16.85
  -2  -1  -3  772.00   14.48
  -2   1  -3  771.85   13.94
   2  -1   3  785.35   16.04
   2   1   3  815.46   17.73
  -2   1  -3  775.84   17.51
   2   1   3  782.53   15.88
   2   1   3  802.31   17.92
  -2  -1  -3  749.31   16.76
  -2  -1  -3  772.73   17.27
  -2  -1  -3  772.38   15.47
  -2   1  -3  769.98   16.68
  -2   1  -3  807.28   16.53
  -2   1  -3  774.66   15.34
  -2  -1  -3  799.57   17.39
   2   1   4  368.01   12.71
  -2   1  -4  365.72   12.09
  -2  -1  -4  359.68   12.51
   2  -1   4  362.71   11.42
  -2   1  -4  365.08   11.53
  -2  -1  -4  412.26   13.17
  -2   1  -4  324.01   16.16
   2   1   4  370.14   13.44
   2  -1   4  365.63   13.19
  -2  -1  -4  361.15   12.64
  -2   1  -4  364.10   13.33
   2  -1   4  352.57   12.06
  -2   1  -4  370.10   11.23
  -2  -1  -4  376.25   13.55
   2   1   4  352.39   12.42
   2   1   4  371.20   12.41
  -2   1  -4  374.76   13.30
   2  -1   5   11.88    2.75
  -2  -1  -5   13.55    3.72
   2   1   5   11.84    2.84
  -2  -1  -5   10.64    3.01
   2   1   5   13.12    3.06
  -2  -1  -5   11.09    2.92
   2   1   5    7.63    2.83
  -2  -1  -5   14.64    3.60
   2  -1   5   11.12    3.44
  -2   1  -5    8.62    2.79
  -2   1  -5   12.52    2.90
   2   1   5   11.60    2.92
  -2   1  -5   10.95    3.30
  -2  -1  -6  524.69   18.20
   2   1   6  531.23   17.67
  -2  -1  -6  567.15   19.21
  -2   1  -6  560.79   19.26
   2   1   6  514.68   17.95
   2   1   6  490.63   18.72
  -2  -1  -6  562.25   18.99
  -2   1  -6  547.14   22.46
   2   1   6  533.03   18.62
  -2  -1  -6  551.01   20.23
  -2   1  -6  552.51   20.64
   2  -1   6  554.35   19.98
  -2  -1  -7    1.26    3.02
   2   1   7    3.47    3.13
   2   1   7    5.27    3.16
  -2  -1  -7    4.09    2.87
  -2   1  -7    5.91    4.69
   2   1   7    5.81    3.94
   2  -1   7    4.42    3.61
   2  -1   7    7.01    3.41
  -2  -1  -7    5.36    3.37
  -2  -1  -8   80.31    8.99
   2   1   8   79.65    8.94
  -2  -1  -8   82.36    9.32
  -2  -1  -9    4.06    4.42
   2   1   9   13.61    5.99
  -2   2   8   31.32    6.92
   2  -2  -8   41.59    7.45
  -2   2   8   33.19    6.21
   2  -2  -8   35.81    6.27
  -2   2   8   43.12    7.55
   2  -2  -8   28.70    5.92
  -2   2   7  264.80   14.52
  -2   2   7  249.36   14.76
   2  -2  -7  266.22   14.73
   2  -2  -7  264.70   15.67
   2  -2  -7  230.92   14.23
  -2   2   7  278.89   15.89
  -2   2   6  198.36   11.92
   2  -2  -6  183.54   11.32
   2  -2  -6  170.80   11.46
  -2   2   6  185.85   11.78
   2  -2  -6  198.33   11.76
  -2   2   6  200.53   11.68
   2  -2  -5  972.95   23.98
  -2   2   5 1094.91   25.53
  -2   2   5 1043.08   24.55
   2  -2  -5  972.07   23.89
   2  -2  -5  983.38   23.94
  -2   2   5 1072.86   24.42
  -2   2   4   35.29    4.46
   2  -2  -4   39.67    4.70
   2  -2  -4   36.49    4.05
  -2   2   4   37.13    3.89
   2  -2  -4   34.25    4.47
   2  -2  -4   36.68    4.45
  -2   2   4   38.92    4.50
  -2   2   4   35.39    4.18
   2  -2  -3  711.66   16.35
   2  -2  -3  680.18   12.31
   2  -2  -3  724.31   11.59
   2  -2  -3  707.98   17.10
   2  -2  -3  740.51   16.79
   2  -2  -3  730.57   16.02
  -2   2   3  690.60   15.63
  -2   2   3  689.17   12.19
   2  -2  -3  702.78   12.19
  -2   2   3  630.35   16.44
  -2   2   3  709.15   16.25
  -2   2   3  715.38   15.95
  -2   2   3  748.87   13.96
  -2   2   3  723.79   12.32
   2  -2  -2 4650.61   33.03
   2  -2  -2 4750.02   39.95
   2  -2  -2 4803.12   35.23
  -2   2   2 4701.63   39.87
   2  -2  -2 4749.62   38.77
  -2   2   2 4637.75   38.93
  -2   2   2 4740.20   32.68
  -2   2   2 4650.82   33.09
   2  -2  -2 4516.17   35.68
  -2   2   2 4752.51   34.83
  -2   2   2 4680.93   35.36
   2  -2  -1  859.87   15.08
  -2   2   1  895.29   15.47
   2  -2  -1  862.65   15.85
  -2   2   1  882.34   16.35
   2  -2  -1  858.29   12.31
   2  -2  -1  915.12   15.61
  -2   2   1  882.00   15.22
  -2   2   1  796.79   14.55
  -2   2   0   87.20    4.70
  -2   2   0   81.96    5.06
   2  -2   0   78.28    4.84
  -2   2   0   93.53    5.48
   2  -2   0   75.29    4.83
  -2   2   0   74.88    4.96
  -2   2  -1    4.02    1.54
  -2   2  -1    2.95    1.31
  -2   2  -1    6.08    1.87
  -2   2  -1    4.59    1.61
   2  -2   1    5.19    1.69
  -2   2  -2 2311.21   32.81
  -2   2  -2 2074.64   41.17
  -2   2  -3 4074.81   52.37
  -2   2  -3 3963.71   55.54
   2   2   4  425.39   15.27
  -2  -2  -4  464.22   16.13
   2   2   4  396.15   14.25
  -2  -2  -4  453.40   16.59
  -2  -2  -4  407.37   14.65
  -2  -2  -5 1552.26   34.05
   2   2   5 1528.53   31.37
  -2  -2  -5 1496.83   28.42
  -2  -2  -5 1513.66   31.30
   2   2   5 1548.93   30.54
  -2  -2  -5 1432.90   29.07
   2   2   6  170.51   10.90
   2   2   6  154.68   10.72
  -2  -2  -6  144.19   10.63
  -2  -2  -6  148.35    9.71
  -2  -2  -6  184.44   12.17
   2   2   6  175.26   12.38
  -2  -2  -6  159.43   10.99
   2   2   7   -1.88    3.51
   2   2   7   -2.77    3.29
  -2  -2  -7   -1.54    3.76
   2   2   7   -5.65    5.28
  -2  -2  -7    1.50    3.15
  -2  -2  -7   -1.39    3.33
  -2  -2  -8   56.01    7.92
   2   2   8   72.72    9.40
  -2  -2  -8   53.75    8.87
   2   2   8   61.52    9.01
  -2  -2  -8   60.52    8.49
  -2   3   9  145.30   13.22
   2  -3  -9  154.33   14.14
   2  -3  -8  431.40   21.58
  -2   3   8  422.33   19.82
  -2   3   8  408.61   20.62
   2  -3  -8  399.53   20.50
  -2   3   8  411.71   20.66
   2  -3  -8  419.25   20.08
  -2   3   7  255.98   14.64
   2  -3  -7  257.46   14.67
   2  -3  -7  245.89   15.00
  -2   3   7  235.28   14.37
   2  -3  -7  263.24   15.80
  -2   3   7  254.44   15.10
  -2   3   6   53.88    6.76
   2  -3  -6   38.93    5.83
   2  -3  -6   48.34    6.52
   2  -3  -6   43.65    6.05
  -2   3   6   55.37    6.80
  -2   3   6   51.59    6.74
   2  -3  -5 1182.15   27.08
   2  -3  -5 1190.52   27.81
   2  -3  -5 1303.38   28.61
  -2   3   5 1310.85   28.21
  -2   3   5 1315.51   28.30
  -2   3   5 1331.64   29.12
   2  -3  -4 1889.51   31.39
  -2   3   4 1808.73   31.38
   2  -3  -4 1911.59   30.53
  -2   3   4 1684.46   27.56
   2  -3  -4 1813.78   31.35
  -2   3   4 1800.87   30.48
  -2   3   4 1751.95   29.88
   2  -3  -4 1763.05   30.59
  -2   3   3  780.26   19.37
   2  -3  -3  833.27   19.37
  -2   3   3  701.76   17.47
   2  -3  -3  748.33   18.37
   2  -3  -3  761.63   18.74
  -2   3   3  776.07   19.08
  -2   3   3  794.93   18.13
   2  -3  -3  740.36   17.52
   2  -3  -2   68.24    5.49
   2  -3  -2   75.68    5.84
  -2   3   2   85.95    6.83
  -2   3   2   76.40    5.68
   2  -3  -2   73.62    5.03
  -2   3   2   76.05    6.47
  -2   3   2   74.57    5.73
  -2   3   1 2241.56   47.89
  -2   3   1 2187.02   58.33
   2   3   7   45.68    7.31
  -2  -3  -7   59.62   10.10
  -2  -3  -7   38.94    9.37
  -2  -3  -8   23.97    6.98
  -2  -3  -8   25.66    8.30
   2   3   8   18.49    5.13
  -2   4   8  182.78   15.80
  -2   4   8  188.22   14.69
   2  -4  -8  187.97   15.06
   2  -4  -8  187.28   14.53
   2  -4  -8  186.81   14.84
  -2   4   8  183.52   15.26
  -2   4   7  579.94   24.19
   2  -4  -7  564.98   23.07
   2  -4  -7  589.11   24.38
   2  -4  -7  562.25   23.58
  -2   4   7  563.30   23.96
  -2   4   7  638.90   26.14
   2  -4  -6  115.54   10.30
   2  -4  -6  144.60   11.75
   2  -4  -6  131.17   10.93
  -2   4   6  132.05   11.45
  -2   4   6  142.20   11.70
  -2   4   6  138.79   11.59
  -2   4   5   13.81    4.28
   2  -4  -5    8.07    2.99
  -2   4   5   15.08    4.43
   2  -4  -5    8.95    3.34
   2  -4  -5    7.96    4.03
   2  -4  -4  758.91   22.13
  -2   4   4  791.50   26.83
  -2   4   4  738.10   26.78
   2  -4  -4  774.03   21.85
  -2   4   4  750.89   28.19
  -3   0   1    1.88    1.26
  -3   0   1    1.02    1.28
   3   0   0 3572.68   34.45
  -3   0   0 3600.01   34.97
  -3   0   0 3559.86   36.10
  -3   0   0 3641.28   32.55
  -3   0   0 3604.91   34.73
  -3   0  -1   -1.77    1.42
  -3   0  -1    1.92    1.52
  -3   0  -1   -2.71    1.30
  -3   0  -1   -0.51    1.18
  -3   0  -1   -0.01    1.65
   3   0   2   66.46    5.17
   3   0   2   60.54    5.07
  -3   0  -2   60.12    4.84
  -3   0  -2   63.87    5.08
  -3   0  -2   69.81    5.36
  -3   0  -2   63.64    4.72
   3   0   2   62.78    3.27
   3   0   2   69.92    4.98
  -3   0  -3    0.27    1.39
   3   0   3   -1.67    1.83
   3   0   3    0.74    1.87
   3   0   3   -0.61    1.91
  -3   0  -3   -0.62    1.77
  -3   0  -3    3.18    1.86
  -3   0  -3    0.60    1.45
  -3   0  -4  102.09    7.00
   3   0   4  104.98    6.78
   3   0   4   98.88    6.55
   3   0   4  118.86    8.62
   3   0   4  123.11    8.49
  -3   0  -4  107.26    7.96
  -3   0  -4  115.34    8.15
  -3   0  -4  101.26    6.60
   3   0   5   -3.41    2.98
  -3   0  -5   -0.72    2.29
   3   0   5   -1.54    2.97
  -3   0  -5   -3.90    3.51
   3   0   6 2902.96   45.89
   3   0   6 2713.24   46.09
  -3   0  -6 2875.97   47.37
  -3   0  -6 2792.69   46.41
  -3   0  -7   -0.66    2.93
   3   0   7   -2.41    3.55
   3   0   7    1.15    3.48
  -3   0  -7    2.62    3.71
   3   0   8   45.48    7.68
   3   0   8   48.59    8.13
  -3   0  -8   50.49    8.35
  -3   0  -8   50.68    7.93
   3  -1  -6   41.69    6.06
  -3   1   6   40.53    5.48
   3  -1  -6   48.36    6.47
  -3   1   6   49.18    6.67
  -3   1   5  137.96    9.44
   3  -1  -5  141.24   10.17
  -3   1   5  153.84    9.57
  -3   1   5  149.56   10.33
   3  -1  -5  151.66   10.15
   3  -1  -5  156.60   10.13
  -3   1   4   56.43    5.47
  -3   1   4   57.62    5.48
   3  -1  -4   47.15    5.10
   3  -1  -4   43.48    5.20
  -3   1   4   55.91    5.71
  -3   1   4   48.45    4.90
   3  -1  -4   54.79    5.62
  -3   1   3   59.37    5.17
  -3   1   3   66.34    5.18
   3  -1  -3   53.56    5.11
  -3   1   3   58.24    4.11
   3  -1  -3   58.12    4.76
  -3   1   3   56.68    5.02
  -3   1   3   51.89    4.47
   3  -1  -3   53.79    4.85
  -3   1   2 2626.05   29.99
  -3   1   2 2561.66   27.00
   3  -1  -2 2560.36   30.17
  -3   1   2 2559.26   24.97
   3  -1  -2 2558.88   25.51
  -3   1   2 2563.66   30.98
   3  -1  -2 2639.17   28.64
  -3   1   2 2589.19   28.47
  -3   1   1 1740.97   22.24
   3  -1  -1 1715.31   22.74
   3  -1  -1 1699.36   19.58
   3  -1  -1 1727.36   21.75
  -3   1   1 1708.76   23.73
  -3   1   1 1731.71   24.40
  -3   1   1 1782.98   18.25
  -3   1   1 1770.72   23.24
  -3   1   0    4.36    1.46
  -3   1   0    5.36    1.22
  -3   1   0    3.40    1.37
   3  -1   0    3.68    1.60
   3  -1   0    5.87    1.31
   3  -1   0    4.67    1.12
  -3   1   0    3.55    1.15
  -3   1   0    5.83    1.43
   3  -1   1  132.86    7.35
   3  -1   1  132.78    6.66
  -3   1  -1  142.90    7.42
  -3   1  -1  127.85    6.22
   3  -1   1  121.32    5.29
  -3   1  -1  135.63    6.96
  -3   1  -1  115.83    5.13
  -3   1  -1  123.71    7.21
   3  -1   2   72.31    5.52
   3  -1   2   71.26    5.88
   3  -1   2   70.80    4.34
  -3   1  -2   79.41    4.59
   3  -1   2   75.63    5.00
  -3  -1  -2   75.14    7.01
  -3   1  -2   76.21    5.71
  -3  -1  -2   66.09    6.47
  -3   1  -2   70.39    4.63
  -3  -1  -2   71.00    7.18
   3   1   2   71.90    6.16
  -3   1  -2   68.51    5.31
  -3   1  -2   64.32    5.16
  -3   1  -3  232.96   10.15
   3  -1   3  242.29   10.37
   3   1   3  243.09   11.03
   3   1   3  247.98   11.18
   3  -1   3  243.36   11.15
   3  -1   3  252.03   10.39
  -3  -1  -3  230.74   10.83
  -3   1  -3  238.64   10.87
   3   1   3  238.14    9.12
  -3  -1  -3  235.49   10.67
  -3  -1  -3  238.07    9.11
  -3   1  -3  246.30    9.99
  -3  -1  -3  230.62    9.86
  -3   1  -3  248.59   10.30
   3  -1   4  891.88   20.55
   3   1   4  853.87   21.71
   3  -1   4  841.89   22.23
   3   1   4  904.37   22.95
   3  -1   4  924.66   22.25
  -3  -1  -4  806.57   20.97
  -3   1  -4  894.44   22.59
  -3  -1  -4  893.92   22.07
   3   1   4  885.48   19.27
  -3   1  -4  922.84   21.79
  -3   1  -4  877.59   21.09
  -3   1  -4  908.83   20.51
   3  -1   5  459.07   17.55
   3   1   5  471.90   18.09
   3  -1   5  436.73   16.73
  -3  -1  -5  439.73   16.66
  -3   1  -5  442.53   17.36
  -3  -1  -5  372.24   15.89
  -3   1  -5  436.65   17.09
   3   1   5  431.61   16.57
   3   1   6  249.62   13.41
   3  -1   6  292.88   15.58
   3   1   6  262.89   14.70
   3  -1   6  250.38   13.90
  -3  -1  -6  272.94   14.44
  -3   1  -6  239.59   14.28
  -3  -1  -6  253.49   14.34
  -3   1  -6  267.42   15.05
  -3  -1  -7   32.17    6.33
   3   1   7   25.43    5.38
   3  -1   7   37.94    6.91
  -3   1  -7   29.78    6.53
   3   1   7   21.91    5.29
   3  -1   7   23.84    5.23
  -3  -1  -7   27.21    5.38
  -3   1  -7   26.19    6.26
   3   1   8  146.02   13.59
   3  -1   8  112.16   10.37
  -3  -1  -8  134.78   12.03
  -3   1  -8  132.76   14.54
  -3   2   8  120.93   11.60
  -3   2   8  157.38   13.93
   3  -2  -8  141.51   12.92
   3  -2  -8  134.48   12.41
  -3   2   8  142.16   12.74
   3  -2  -8  153.35   13.76
  -3   2   7   36.43    6.64
  -3   2   7   33.12    5.78
   3  -2  -7   38.60    6.78
   3  -2  -7   34.80    6.41
   3  -2  -7   35.95    6.40
  -3   2   7   45.43    7.31
  -3   2   6  189.36   12.11
  -3   2   6  213.64   13.03
   3  -2  -6  197.52   12.72
   3  -2  -6  196.21   12.75
   3  -2  -6  190.42   12.05
  -3   2   6  200.14   12.25
  -3   2   5  604.40   18.94
   3  -2  -5  556.61   19.03
   3  -2  -5  574.97   18.99
   3  -2  -5  562.88   17.63
  -3   2   5  574.12   17.50
   3  -2  -5  566.15   18.61
  -3   2   5  568.41   19.21
  -3   2   5  567.22   18.28
  -3   2   4  548.27   16.29
   3  -2  -4  528.37   17.10
   3  -2  -4  527.48   15.99
   3  -2  -4  581.48   16.99
  -3   2   4  535.94   16.35
   3  -2  -4  564.57   16.67
  -3   2   4  540.95   16.01
  -3   2   4  543.01   17.20
   3  -2  -3 2959.82   30.54
   3  -2  -3 3022.15   30.29
  -3   2   3 3044.89   31.14
   3  -2  -3 2997.49   37.43
   3  -2  -3 2837.56   33.17
   3  -2  -3 2852.52   36.68
   3  -2  -3 2944.97   33.74
  -3   2   3 3001.54   33.30
  -3   2   3 3012.17   37.10
  -3   2   3 2915.83   33.49
  -3   2   3 3028.21   37.29
  -3   2   3 2993.33   30.17
  -3   2   2   77.89    5.16
   3  -2  -2   80.59    5.30
   3  -2  -2   84.44    4.97
   3  -2  -2   82.14    5.10
   3  -2  -2   76.08    5.64
   3  -2  -2   81.22    6.18
  -3   2   2   85.69    6.13
  -3   2   2   84.46    5.05
   3  -2  -2   80.57    5.38
  -3   2   2   81.84    4.72
  -3   2   2   87.61    5.76
  -3   2   2   81.86    5.95
   3  -2  -1  749.29   16.65
   3  -2  -1  802.11   11.98
   3  -2  -1  829.19   13.20
   3  -2  -1  767.31   17.70
  -3   2   1  795.68   17.66
  -3   2   1  763.75   13.06
  -3   2   1  776.71   16.51
  -3   2   1  767.97   16.76
  -3   2   1  775.23   16.33
   3  -2  -1  785.71   16.22
   3  -2   0 2710.43   32.29
   3  -2   0 2688.60   26.23
   3  -2   0 2636.83   30.89
  -3   2   0 2749.95   32.29
  -3   2   0 2668.45   27.66
  -3   2   0 2783.88   32.31
  -3   2   0 2689.33   32.09
  -3   2   0 2775.18   26.53
   3  -2   1  164.46    7.91
   3  -2   1  160.85    8.20
  -3   2  -1  168.27    7.79
   3  -2   1  156.16    5.96
  -3   2  -1  160.99    7.68
  -3   2  -1  154.39    8.02
  -3   2  -1  164.23    8.30
  -3   2  -1  163.85    5.55
   3  -2   2   52.65    5.00
  -3   2  -2   59.26    4.41
   3  -2   2   54.63    4.37
  -3   2  -2   59.53    5.31
  -3   2  -2   55.21    5.08
  -3   2  -2   50.38    4.84
  -3   2  -3    3.99    2.02
   3  -2   3   -0.39    2.22
   3  -2   3    2.73    1.85
  -3   2  -3    2.83    2.08
  -3   2  -3    4.10    2.35
  -3   2  -3    1.73    1.82
   3  -2   4  643.14   18.36
  -3   2  -4  632.99   20.02
  -3   2  -4  634.36   21.49
  -3   2  -4  616.61   18.06
   3   2   5  958.28   26.66
   3  -2   5 1020.00   25.08
  -3  -2  -5 1071.69   29.69
  -3   2  -5 1125.32   31.66
  -3  -2  -5 1116.53   31.90
   3   2   5 1015.24   25.51
   3   2   6   59.34    7.02
   3   2   6   65.25    8.10
  -3  -2  -6   67.81    7.96
  -3  -2  -6   67.14    8.32
   3   2   7  345.52   18.88
  -3  -2  -7  326.91   19.04
   3   2   8   37.02    7.48
  -3  -2  -8   39.15    7.74
  -3   3   8   45.75    7.63
   3  -3  -8   48.00    7.92
   3  -3  -8   39.52    7.54
  -3   3   8   39.47    7.42
   3  -3  -8   35.84    6.23
  -3   3   8   34.03    6.77
  -3   3   7  351.70   18.05
  -3   3   7  374.87   18.33
   3  -3  -7  367.71   18.35
   3  -3  -7  395.42   20.06
   3  -3  -7  396.06   19.02
  -3   3   7  367.93   18.06
  -3   3   6  746.38   24.31
   3  -3  -6  767.97   24.77
   3  -3  -6  769.69   25.05
   3  -3  -6  705.08   23.12
  -3   3   6  736.26   23.47
  -3   3   6  742.12   23.37
  -3   3   5  372.07   16.23
   3  -3  -5  346.43   15.11
   3  -3  -5  362.34   16.18
   3  -3  -5  352.57   15.10
   3  -3  -5  369.93   14.83
  -3   3   5  357.51   14.24
  -3   3   5  349.62   14.76
  -3   3   5  363.34   14.94
  -3   3   4    2.03    2.33
  -3   3   4    4.15    2.32
   3  -3  -4    6.03    3.06
   3  -3  -4   10.61    3.18
   3  -3  -4    9.40    2.65
   3  -3  -4    7.57    2.51
  -3   3   4    4.73    2.83
  -3   3   4    8.88    2.88
   3  -3  -3 2544.27   32.96
  -3   3   3 2577.09   37.63
   3  -3  -3 2492.97   32.64
   3  -3  -3 2580.30   37.03
   3  -3  -3 2494.40   35.81
  -3   3   3 2468.85   35.54
  -3   3   3 2588.55   33.81
  -3   3   3 2585.57   32.48
   3  -3  -2 1938.68   28.66
   3  -3  -2 1914.77   24.74
  -3   3   2 1906.73   29.75
   3  -3  -2 1948.36   29.62
   3  -3  -2 1925.93   30.42
  -3   3   2 1850.82   30.28
  -3   3   2 1969.10   32.60
  -3   3   2 1871.00   26.91
   3  -3  -1  940.55   20.38
   3  -3  -1  891.75   19.16
   3  -3  -1  921.98   20.75
  -3   3   1  978.29   21.92
  -3   3   1  997.50   22.47
  -3   3   1  961.11   20.58
  -3   3   1  946.37   19.62
  -3   3   0   20.05    3.69
   3  -3   0   18.64    3.45
   3  -3   0   19.67    3.50
  -3   3   0   18.83    3.15
  -3   3   0   19.70    3.59
  -3   3   0   19.75    3.91
  -3   3  -1 1115.74   31.43
  -3   3  -1 1191.72   32.50
  -3   4   8    6.66    4.78
   3  -4  -8   13.86    4.92
   3  -4  -8   10.22    6.29
  -3   4   8    8.27    4.76
  -3   4   8    6.96    6.12
  -3   4   7   85.62    9.88
   3  -4  -7   80.24    9.51
  -3   4   7   81.25    9.43
   3  -4  -7   74.11    9.38
   3  -4  -7   92.72   10.04
  -3   4   7   87.84    9.54
  -3   4   6  254.83   15.33
   3  -4  -6  279.38   15.69
  -3   4   6  250.13   14.80
   3  -4  -6  269.88   15.57
   3  -4  -6  257.14   15.12
  -3   4   6  277.12   15.62
   3  -4  -5 1410.23   33.27
   3  -4  -5 1493.94   34.64
   3  -4  -5 1440.97   33.43
   3  -4  -5 1449.71   32.47
  -3   4   5 1466.40   32.02
  -3   4   5 1486.31   35.32
  -3   4   5 1397.43   32.94
  -3   4   5 1446.28   34.92
   3  -4  -4   98.36    8.70
   3  -4  -4  116.65    9.23
  -3   4   4  104.45    8.95
  -3   4   4  113.46    9.22
   3  -4  -4  120.47    9.13
  -3   4   4  127.77   10.29
  -3   4   3    7.70    3.74
   3  -4  -3    5.77    2.27
   3  -4  -3    4.76    2.87
   3  -4  -3    8.44    3.00
  -3   4   3    2.48    2.67
   3  -4  -2  815.66   21.42
  -3   4   2  827.63   31.51
  -3   4   2  761.19   27.95
  -3   5   7   -3.19   10.57
  -3   5   7   -1.89   11.38
   3  -5  -7   -0.18    3.36
  -3   5   6   25.59   12.51
  -3   5   6   -0.59   11.10
  -4   0   0 1700.92   29.29
  -4   0   0 1644.20   27.28
  -4   0   0 1711.73   28.85
  -4   0  -1    2.32    1.85
   4   0   1    0.92    2.08
   4   0   1    2.39    2.09
  -4   0  -1   -0.34    1.85
  -4   0  -1    0.95    1.16
  -4   0  -1    0.22    1.44
  -4   0  -2  844.74   20.56
   4   0   2  891.36   21.07
   4   0   2  852.53   20.57
  -4   0  -2  822.34   19.92
  -4   0  -2  839.59   17.80
  -4   0  -2  821.86   19.79
  -4   0  -3    1.22    1.76
   4   0   3    1.42    2.49
   4   0   3   -1.01    2.35
   4   0   3    2.02    2.37
  -4   0  -3    1.39    2.32
  -4   0  -3   -0.55    1.72
  -4   0  -3   -0.14    2.38
  -4   0  -4   33.93    4.79
   4   0   4   37.68    4.92
   4   0   4   31.30    5.31
   4   0   4   48.70    5.88
  -4   0  -4   41.14    6.10
  -4   0  -4   32.72    4.74
  -4   0  -4   42.68    5.16
   4   0   5    9.80    3.96
   4   0   5   10.75    4.26
  -4   0  -5   -0.64    3.28
  -4   0  -5    0.40    2.36
   4   0   6    5.20    3.91
   4   0   6    7.31    4.08
  -4   0  -6   12.27    4.40
  -4   0  -6    7.70    3.97
   4   0   7   -2.58    4.89
   4   0   7   -5.29    4.42
  -4   0  -7    4.55    3.80
  -4   0  -7    2.42    3.88
   4   0   8  708.18   29.17
  -4   0  -8  569.70   26.41
  -4   1   5 1086.34   27.12
   4  -1  -5 1095.72   26.65
   4  -1  -5 1117.63   25.14
  -4   1   5 1144.91   26.85
  -4   1   4  128.78    9.19
   4  -1  -4  139.54    9.95
   4  -1  -4  131.12    8.67
  -4   1   4  131.62   10.06
  -4   1   4  158.24    9.17
  -4   1   3  185.12    9.78
   4  -1  -3  185.44   10.71
  -4   1   3  186.90   10.68
  -4   1   3  194.27    9.05
  -4   1   2   50.27    4.86
  -4   1   2   49.80    4.83
   4  -1  -2   51.24    5.24
  -4   1   2   50.90    5.28
   4  -1  -2   47.80    4.72
  -4   1   2   48.91    4.65
  -4   1   1    3.68    1.94
  -4   1   1    2.09    1.42
   4  -1  -1    0.43    1.60
  -4   1   1    1.47    1.41
   4  -1  -1    2.54    1.56
  -4   1   1    1.29    1.51
  -4   1   1    2.62    1.17
   4  -1   0 1420.63   25.19
   4  -1   0 1483.33   23.73
  -4   1   0 1429.92   24.17
  -4   1   0 1455.30   22.33
  -4   1   0 1429.41   25.40
  -4   1   0 1399.88   25.50
   4  -1   1  125.60    7.99
   4  -1   1  127.55    7.53
  -4   1  -1  127.17    6.98
  -4   1  -1  143.07    7.90
  -4   1  -1  126.04    7.97
  -4   1  -1  121.50    7.79
  -4   1  -2    6.08    2.33
   4  -1   2    6.38    2.74
   4  -1   2    4.90    2.48
   4  -1   2    6.30    2.14
  -4   1  -2    4.69    1.87
  -4   1  -2    5.63    2.60
  -4   1  -2    2.96    2.00
  -4   1  -3   11.84    3.48
   4  -1   3   15.24    3.62
   4  -1   3    7.69    2.63
   4   1   3   13.36    4.00
   4  -1   3   15.58    3.96
  -4   1  -3   10.47    3.03
   4  -1   3   14.08    3.33
  -4  -1  -3   15.37    4.74
  -4   1  -3   12.69    3.06
  -4  -1  -3   17.31    4.46
  -4   1  -3   10.06    2.80
  -4  -1  -3    8.94    3.77
  -4   1  -4   18.36    3.86
   4  -1   4   11.56    3.21
   4  -1   4   16.46    3.78
   4   1   4   15.31    4.31
   4  -1   4   12.62    4.15
   4   1   4   15.31    4.19
  -4  -1  -4   14.01    3.84
   4  -1   4   15.17    3.67
  -4   1  -4   22.00    5.05
  -4  -1  -4   16.05    3.91
  -4   1  -4   17.97    3.69
  -4  -1  -4   17.44    3.63
  -4   1  -4   16.94    3.52
   4   1   5  163.91   11.68
   4  -1   5  164.95   11.61
   4   1   5  184.53   12.56
   4  -1   5  172.66   11.78
  -4  -1  -5  168.81   11.84
  -4   1  -5  179.29   12.42
  -4  -1  -5  165.14   11.55
  -4   1  -5  168.11   11.12
   4   1   6  209.47   13.94
   4  -1   6  198.74   13.34
   4   1   6  204.00   14.48
   4  -1   6  188.20   12.92
  -4  -1  -6  196.81   13.76
  -4   1  -6  187.46   13.56
  -4  -1  -6  194.90   13.36
  -4   1  -6  183.14   12.96
   4   1   7  264.62   16.43
   4  -1   7  257.43   16.61
   4   1   7  252.05   16.94
   4  -1   7  233.49   15.25
  -4  -1  -7  259.60   16.87
  -4   1  -7  253.83   17.50
  -4  -1  -7  249.22   16.29
  -4   1  -7  269.63   17.88
   4   1   8  154.85   14.50
  -4  -1  -8  135.28   13.48
  -4   2   7   67.12    8.28
  -4   2   7   63.84    8.19
   4  -2  -7   50.08    7.70
   4  -2  -7   44.48    7.10
  -4   2   6  306.41   16.26
   4  -2  -6  311.81   17.44
  -4   2   6  293.33   15.52
  -4   2   6  315.11   16.79
   4  -2  -6  297.70   16.33
   4  -2  -6  320.13   16.79
  -4   2   6  242.94   15.45
  -4   2   5   16.25    4.15
  -4   2   5   15.94    4.51
   4  -2  -5   14.31    4.16
   4  -2  -5   13.26    4.78
  -4   2   5   20.73    4.53
   4  -2  -5   23.04    4.38
  -4   2   4  611.36   19.52
   4  -2  -4  606.47   19.97
   4  -2  -4  631.83   19.99
  -4   2   4  611.89   19.44
  -4   2   3  960.61   22.81
   4  -2  -3 1016.61   21.00
   4  -2  -3  965.88   22.94
   4  -2  -3 1023.11   24.33
  -4   2   3  917.74   22.75
  -4   2   3  986.59   20.70
  -4   2   2  599.38   16.74
   4  -2  -2  678.65   17.40
   4  -2  -2  653.89   17.34
   4  -2  -2  660.67   17.58
   4  -2  -2  659.27   18.86
  -4   2   2  666.97   18.53
  -4   2   2  663.50   16.93
  -4   2   2  621.27   17.16
  -4   2   1 2620.13   31.53
  -4   2   1 2636.63   34.78
   4  -2  -1 2605.54   34.71
   4  -2  -1 2578.15   34.71
   4  -2  -1 2645.21   32.39
   4  -2  -1 2647.46   36.55
  -4   2   1 2647.12   36.02
  -4   2   1 2548.86   35.31
   4  -2   0  166.09    9.47
   4  -2   0  164.83    8.12
   4  -2   0  182.80    9.66
  -4   2   0  178.55    9.35
  -4   2   0  172.43    7.99
  -4   2   0  166.58    9.19
  -4   2   0  167.74    9.61
   4  -2   1  405.13   14.91
   4  -2   1  399.48   13.66
   4  -2   1  407.71   13.42
  -4   2  -1  392.39   13.08
  -4   2  -1  394.42   13.39
  -4   2  -1  398.30   14.54
  -4   2  -1  396.39   14.82
   4  -2   2  742.29   20.81
  -4   2  -2  718.01   20.35
   4  -2   2  749.92   20.76
   4  -2   2  715.56   17.90
  -4   2  -2  748.52   17.30
  -4   2  -2  758.62   20.16
  -4   2  -2  744.98   20.45
  -4   2  -3   11.38    3.10
   4  -2   3    4.51    2.92
  -4   2  -3   14.57    3.66
  -4   2  -3   14.94    3.61
  -4   2  -4    7.85    2.65
   4  -2   4    5.50    3.28
   4  -2   4   10.74    3.63
   4  -2   4   11.00    3.40
  -4   2  -4   14.57    4.56
  -4   2  -4    8.20    3.09
  -4   2  -4   11.33    3.80
   4  -2   5    8.35    3.93
   4  -2   5    1.77    3.05
  -4   2  -5    2.60    2.78
  -4   2  -5    0.85    3.44
   4  -2   6  137.98   11.29
   4  -2   6  139.16   11.37
  -4   2  -6  146.32   13.61
   4  -3  -8   -3.45    5.48
   4  -3  -8   10.58    6.42
  -4   3   8    4.16    4.68
   4  -3  -7    8.04    3.86
   4  -3  -7   18.83    5.18
  -4   3   7   13.73    5.06
  -4   3   6   38.51    6.12
  -4   3   6   35.89    6.25
   4  -3  -6   29.57    6.03
   4  -3  -6   28.78    5.12
  -4   3   5  780.56   24.75
   4  -3  -5  797.26   25.08
   4  -3  -5  774.76   23.44
  -4   3   5  775.02   23.23
   4  -3  -4 1118.34   27.58
   4  -3  -4 1104.09   27.02
  -4   3   4 1081.00   26.68
  -4   3   4 1094.83   27.30
   4  -3  -3  301.63   13.71
   4  -3  -3  300.05   13.95
  -4   3   3  308.19   13.92
  -4   3   3  310.14   13.64
  -4   3   2   16.01    3.53
  -4   3   2   17.25    3.60
   4  -3  -2   18.21    3.80
   4  -3  -2   10.51    2.98
   4  -3  -2   10.55    3.24
  -4   3   2   10.93    3.29
  -4   3   2    9.57    2.71
   4  -3  -1 2564.70   37.06
   4  -3  -1 2547.71   33.78
   4  -3  -1 2540.55   37.94
  -4   3   1 2596.62   38.37
  -4   3   1 2509.74   35.97
  -4   3   1 2506.26   36.59
   4  -3   0 1049.90   24.48
   4  -3   0 1077.46   24.60
  -4   3   0 1038.72   23.79
  -4   3   0  947.42   29.02
  -4   3   0 1054.59   24.06
  -4   3   0 1059.79   24.52
   4  -3   1  187.23   10.61
   4  -3   1  213.79   11.21
  -4   3  -1  206.16   10.60
  -4   3  -1  194.76   11.26
  -4   3  -1  193.95   10.88
  -4   3  -1  187.69   10.95
   4  -3   2   -0.92    3.02
  -4   3  -2   -0.59    2.53
  -4   3  -2    8.36    2.96
  -4   3  -2    7.55    3.51
  -4   3  -2    5.04    3.03
  -4   3  -3  359.55   18.91
  -4   3  -3  301.78   19.80
  -4   3  -3  355.61   18.17
  -4   3  -4   45.42    8.71
  -4   4   7    9.96    4.35
   4  -4  -7   15.23    5.50
   4  -4  -7   14.84    5.42
  -4   4   7    8.36    4.25
  -4   4   6   16.38    4.89
   4  -4  -6   15.98    4.76
  -4   4   5  173.88   12.52
   4  -4  -5  165.03   11.88
   4  -4  -5  182.05   12.72
  -4   4   5  177.09   12.04
   4  -4  -4  279.66   14.54
   4  -4  -4  281.44   15.03
  -4   4   4  290.44   15.01
  -4   4   4  292.00   15.73
   4  -4  -3 2009.24   37.00
   4  -4  -3 2015.81   38.80
  -4   4   3 1947.58   38.19
  -4   4   3 1872.77   38.36
   4  -4  -2   49.37    5.68
   4  -4  -2   66.54    7.02
  -4   4   2   60.38    7.43
  -4   4   2   67.40    7.14
  -4   4   2   70.25    7.35
  -4   4   1   15.94    4.37
  -4   4   1   19.84    4.34
   4  -4  -1   17.50    4.18
  -4   4   1   17.80    4.84
  -4   4   0  456.94   22.78
  -4   4   0  478.38   23.89
  -4   5   6   21.83    7.91
   4  -5  -6   13.66    5.25
  -4   5   5   11.14    7.54
   4  -5  -5   -2.53    3.76
  -4   5   5    6.10    5.95
  -4   5   4   16.97    7.74
  -4   5   4   34.38   10.57
  -5   0  -1   -5.51    3.03
  -5   0  -1    2.76    2.53
  -5   0  -1   -3.09    3.13
  -5   0  -2  289.82   14.00
   5   0   2  290.42   13.35
   5   0   2  327.90   15.18
  -5   0  -2  303.22   13.97
  -5   0  -2  298.99   14.10
  -5   0  -3   -1.03    3.28
   5   0   3   -0.48    2.42
   5   0   3   -2.93    3.44
  -5   0  -3   -3.68    2.87
  -5   0  -3    1.12    2.82
  -5   0  -4  252.50   13.68
   5   0   4  260.51   12.89
   5   0   4  291.03   15.55
  -5   0  -4  264.43   14.48
  -5   0  -4  272.77   14.07
   5   0   5   -2.68    4.06
   5   0   5   -5.62    3.79
  -5   0  -5    1.75    3.22
  -5   0  -5    1.85    3.09
   5   0   6   20.06    5.67
   5   0   6   29.28    6.83
  -5   0  -6   22.93    6.23
  -5   0  -6   16.90    4.51
   5   0   7   -2.05    4.52
  -5   0  -7    0.26    4.29
  -5   0  -7    6.36    4.38
   5  -1  -3 1397.01   29.11
  -5   1   3 1407.99   34.28
  -5   1   3 1399.35   29.97
  -5   1   2   74.85    7.50
   5  -1  -2   89.10    7.11
  -5   1   2   88.38    8.36
  -5   1   2   94.91    7.88
  -5   1   1   58.60    5.92
   5  -1  -1   62.06    6.33
  -5   1   1   67.18    6.73
  -5   1   1   66.58    6.29
   5  -1   0  111.88    8.59
   5  -1   0  135.23    8.87
  -5   1   0  119.77    8.46
  -5   1   0  108.47    7.02
  -5   1   0  104.31    7.95
  -5   1   0  110.34    8.22
  -5   1  -1   14.17    3.58
   5  -1   1   16.30    4.49
   5  -1   1   12.49    3.45
  -5   1  -1   22.96    3.99
  -5   1  -1   17.43    3.79
  -5   1  -1   15.81    3.55
   5  -1   2  448.67   17.24
   5  -1   2  447.50   16.89
  -5   1  -2  450.17   16.75
  -5   1  -2  415.78   16.43
  -5   1  -2  433.76   16.63
  -5   1  -3   35.44    5.46
   5  -1   3   34.00    5.10
   5  -1   3   35.40    5.32
   5  -1   3   35.88    5.85
  -5   1  -3   45.68    6.26
  -5   1  -3   37.63    5.60
  -5   1  -4    5.58    2.88
   5  -1   4   12.63    3.87
   5  -1   4   11.82    3.81
   5  -1   4    4.37    3.99
  -5  -1  -4    6.12    6.23
  -5   1  -4    2.83    2.97
  -5  -1  -4    3.37    6.04
  -5   1  -4    5.87    3.49
   5  -1   5    3.70    3.54
  -5  -1  -5   -0.45    4.43
  -5   1  -5   -1.44    3.62
  -5  -1  -5   -4.35    5.43
   5   1   6    2.67    4.42
   5  -1   6    2.82    4.23
  -5  -1  -6    3.37    5.32
  -5   1  -6   12.97    5.25
  -5  -1  -6    4.59    5.67
   5  -1   7   87.25   11.09
  -5  -1  -7   75.59   11.54
  -5  -1  -7  104.18   13.45
  -5   1  -7   80.26   10.56
  -5   2   6   46.92    7.14
   5  -2  -6   44.32    6.33
   5  -2  -6   50.79    7.58
  -5   2   5   85.73    8.86
   5  -2  -5   90.23    9.46
   5  -2  -5   76.06    9.24
  -5   2   5  101.44   10.49
  -5   2   4  521.06   19.87
   5  -2  -4  580.91   22.29
   5  -2  -4  587.34   22.68
  -5   2   4  510.02   20.09
  -5   2   3    4.17    2.70
  -5   2   3    3.88    2.39
   5  -2  -3    4.21    3.40
   5  -2  -3    0.48    3.01
  -5   2   3    2.62    2.97
  -5   2   2  813.66   21.09
   5  -2  -2  860.85   22.51
   5  -2  -2  873.52   22.00
   5  -2  -2  860.74   24.16
  -5   2   2  836.47   22.98
  -5   2   2  835.65   21.47
  -5   2   2  846.05   22.31
   5  -2  -1  406.37   15.62
   5  -2  -1  421.00   16.00
   5  -2  -1  426.74   16.55
  -5   2   1  407.36   15.85
  -5   2   1  392.97   15.14
  -5   2   1  412.02   15.94
   5  -2   0  334.77   14.60
   5  -2   0  334.60   14.74
   5  -2   0  344.27   14.57
  -5   2   0  343.23   14.17
  -5   2   0  330.19   14.48
  -5   2   0  340.81   14.90
   5  -2   1  885.83   24.42
   5  -2   1  897.36   24.49
   5  -2   1  879.96   22.03
   5  -2   1  796.35   21.28
  -5   2  -1  842.55   21.46
  -5   2  -1  846.27   21.59
  -5   2  -1  875.19   24.50
  -5   2  -1  858.75   24.48
   5  -2   2  124.98    9.79
   5  -2   2  139.99   10.34
   5  -2   2  132.14    9.75
  -5   2  -2  134.69    9.36
  -5   2  -2  141.03   10.15
  -5   2  -2  138.80   10.23
   5  -2   3  139.70   10.48
   5  -2   3  139.67   10.40
   5  -2   3  122.43   10.52
  -5   2  -3  139.53   10.87
  -5   2  -3  137.22   10.40
  -5   2  -3  134.37   10.06
   5  -2   4  216.64   13.57
   5  -2   4  214.16   12.81
   5  -2   4  227.67   14.65
  -5   2  -4  243.04   14.68
  -5   2  -4  231.00   13.84
  -5   2  -4  222.55   13.37
   5  -2   5   -4.31    3.71
   5  -2   5    8.25    4.44
  -5   2  -5    5.67    3.98
  -5   2  -5   -0.43    5.36
   5  -2   6    2.23    4.12
  -5   2  -6   -0.73    4.20
  -5   3   7   12.63    5.08
   5  -3  -7   14.54    6.91
  -5   3   6   -4.74    4.07
   5  -3  -6    1.74    3.41
   5  -3  -6    0.68    4.31
  -5   3   6    3.57    3.93
  -5   3   5   65.56    7.84
   5  -3  -5   74.47    8.67
   5  -3  -5   73.75    9.01
  -5   3   5   67.55    7.77
  -5   3   4   15.51    4.77
   5  -3  -4    8.52    3.73
   5  -3  -4    9.04    3.70
  -5   3   4   11.53    3.64
  -5   3   3 1170.69   28.39
   5  -3  -3 1129.32   27.89
   5  -3  -3 1151.52   29.20
  -5   3   3 1147.21   29.10
  -5   3   2  919.54   23.30
   5  -3  -2  915.36   24.04
   5  -3  -2  932.98   23.52
   5  -3  -2  818.07   22.21
   5  -3  -2  811.22   23.91
  -5   3   2  839.56   24.65
  -5   3   2  829.22   22.62
  -5   3   2  941.34   24.47
   5  -3  -1  159.10   10.29
   5  -3  -1  144.77    9.78
   5  -3  -1  163.12   10.81
  -5   3   1  152.18   10.37
  -5   3   1  159.04   10.41
  -5   3   1  160.71   10.66
  -5   3   0   10.78    3.49
   5  -3   0   16.21    4.12
   5  -3   0   18.77    4.23
  -5   3   0   19.87    4.03
  -5   3   0   18.26    4.23
   5  -3   1 1535.10   33.82
   5  -3   1 1481.19   29.70
   5  -3   1 1518.61   31.56
  -5   3  -1 1437.04   29.83
  -5   3  -1 1490.58   30.23
  -5   3  -1 1500.92   32.66
  -5   3  -1 1409.31   32.72
   5  -3   2  330.51   16.28
   5  -3   2  345.34   15.91
  -5   3  -2  369.83   16.24
  -5   3  -2  311.09   15.53
  -5   3  -2  316.44   15.88
  -5   3  -3   51.42    7.04
   5  -3   3   57.21    7.50
   5  -3   3   49.74    7.15
  -5   3  -3   55.49    7.40
  -5   3  -3   58.08    7.72
  -5   3  -4   -2.65    3.54
   5  -3   4   -9.45    6.17
  -5   3  -4   -5.48    5.18
  -5   3  -4   -8.47    6.63
   5  -3   5  332.08   21.75
  -5   4   6  246.24   16.31
   5  -4  -6  257.21   16.92
   5  -4  -6  264.32   16.61
  -5   4   6  235.35   15.20
  -5   4   5   41.36    7.29
   5  -4  -5   42.75    6.98
   5  -4  -5   42.51    7.34
  -5   4   5   33.40    5.92
  -5   4   4   11.46    4.68
   5  -4  -4    6.55    3.79
   5  -4  -4    1.44    3.96
  -5   4   4    8.57    3.92
  -5   4   3  240.49   13.93
   5  -4  -3  241.29   13.66
   5  -4  -3  250.60   14.60
  -5   4   3  238.99   14.36
   5  -4  -2  203.88   12.42
   5  -4  -2  175.37   11.16
   5  -4  -2  182.38   12.63
  -5   4   2  184.92   12.70
  -5   4   2  193.01   13.60
  -5   4   2  180.08   11.80
   5  -4  -1 2068.69   40.15
  -5   4   1 2117.21   41.65
  -5   4   1 2096.75   44.34
  -5   4   1 2212.71   42.56
  -5   4   0   35.53    5.96
   5  -4   0   38.49    6.67
   5  -4   0   41.55    6.27
  -5   4   0   45.87    6.93
  -5   4   0   50.04    7.69
  -5   4  -1   67.16   12.83
  -5   4  -1   98.71   11.83
  -5   4  -2  628.73   54.98
  -5   5   6    6.39    6.09
  -5   5   5   -3.93    5.19
   5  -5  -5    1.41    4.18
   5  -5  -5    5.80    5.35
  -5   5   5   -2.19    5.05
  -5   5   4   31.75    9.30
   5  -5  -4   27.80    6.47
   5  -5  -4   36.83    7.30
  -5   5   4   25.35    7.57
  -5   5   3   11.51    6.54
   5  -5  -3   18.43    4.97
  -5   5   3   11.82    7.44
  -5   5   2   21.87    8.51
  -5   5   2   14.71    7.87
  -6   0  -3   -2.60    4.10
  -6   0  -3   -4.11    4.72
   6   0   4  150.03   12.01
   6   0   4  176.30   14.87
  -6   0  -4  145.99   13.26
  -6   0  -4  171.86   13.97
   6   0   5    9.07    6.64
  -6   0  -5   -7.24    5.30
  -6   1   1  584.07   22.38
  -6   1   1  625.65   21.99
  -6   1   0   17.67    4.33
   6  -1   0   20.25    4.65
  -6   1   0   18.98    4.42
  -6   1  -1   14.53    3.91
   6  -1   1   18.70    5.34
   6  -1   1   22.96    4.64
  -6   1  -1   12.03    3.55
  -6   1  -1   12.96    4.17
  -6   1  -2   63.10    7.21
   6  -1   2   73.16    8.31
   6  -1   2   78.57    8.26
  -6   1  -2   65.65    7.38
  -6   1  -2   60.35    7.42
  -6   1  -3   22.16    4.61
   6  -1   3   16.54    4.72
   6  -1   3   11.41    3.94
   6  -1   3   19.56    4.99
  -6   1  -3   16.42    3.85
  -6   1  -3   21.19    4.61
  -6   1  -4  144.23   11.32
   6  -1   4  138.74   11.44
   6  -1   4  135.33   11.14
   6  -1   4  143.77   12.24
  -6   1  -4  134.95   11.40
  -6   1  -4  139.46   11.44
   6  -1   5   25.07    6.17
  -6   1  -5   21.66    5.52
   6  -2  -4   56.69    8.17
   6  -2  -4   46.28    6.52
  -6   2   4   65.13    8.72
   6  -2  -3  105.17    8.97
   6  -2  -3  122.65   11.34
  -6   2   3  111.78   10.57
  -6   2   2  265.49   14.37
   6  -2  -2  262.51   14.07
   6  -2  -2  275.94   15.44
  -6   2   2  261.55   14.76
  -6   2   2  282.84   14.69
  -6   2   1   33.01    5.32
   6  -2  -1   29.62    5.76
   6  -2  -1   36.58    6.27
   6  -2  -1   27.70    5.45
  -6   2   1   35.23    6.10
  -6   2   1   30.21    5.26
   6  -2   0  684.98   23.41
   6  -2   0  621.37   22.35
   6  -2   0  666.96   22.60
  -6   2   0  657.83   21.95
  -6   2   0  626.10   22.03
  -6   2   0  638.96   22.48
   6  -2   1   65.85    7.89
   6  -2   1   77.78    8.84
   6  -2   1   73.48    7.60
  -6   2  -1   65.19    6.83
  -6   2  -1   63.84    7.60
  -6   2  -1   64.65    7.71
   6  -2   2  133.54   11.80
   6  -2   2  146.39   11.58
   6  -2   2  149.87   11.05
  -6   2  -2  144.20   10.49
  -6   2  -2  152.41   11.94
  -6   2  -2  133.05   11.05
   6  -2   3  375.70   18.58
   6  -2   3  404.35   19.13
   6  -2   3  392.31   18.93
  -6   2  -3  382.05   18.57
  -6   2  -3  408.94   19.60
  -6   2  -3  356.79   17.92
   6  -2   4  144.01   12.12
   6  -2   4  138.74   11.54
   6  -2   4  136.12   12.46
  -6   2  -4  136.43   12.11
  -6   2  -4  148.70   12.08
  -6   2  -4  128.87   11.22
   6  -2   5   38.82    7.19
   6  -2   5   32.79    7.26
  -6   2  -5   55.48    8.75
  -6   2  -5   37.29    7.97
  -6   3   6    4.28    3.96
   6  -3  -6   12.24    4.87
   6  -3  -6   10.32    5.71
  -6   3   6    2.89    4.42
  -6   3   5   40.13    7.20
   6  -3  -5   38.57    7.89
   6  -3  -5   35.93    7.71
  -6   3   5   41.39    7.58
  -6   3   4   -2.74    3.78
   6  -3  -4    6.55    3.75
   6  -3  -4    4.86    4.75
  -6   3   4    2.03    3.04
   6  -3  -3  134.35   11.63
  -6   3   3  142.51   11.62
  -6   3   2    2.00    3.05
   6  -3  -2    7.74    3.80
   6  -3  -2    7.76    4.56
   6  -3  -2    6.92    3.42
  -6   3   2    0.33    2.77
  -6   3   2    1.41    2.63
   6  -3  -1  658.33   23.29
   6  -3  -1  660.60   22.83
   6  -3  -1  689.27   23.77
  -6   3   1  615.92   22.73
  -6   3   1  646.32   22.31
  -6   3   1  690.96   23.72
   6  -3   0  372.73   17.61
   6  -3   0  367.18   17.68
   6  -3   0  397.21   17.68
  -6   3   0  382.95   17.36
  -6   3   0  394.50   18.19
  -6   3   0  367.00   17.99
  -6   3  -1   64.30    7.98
   6  -3   1   70.45    8.30
   6  -3   1   69.15    8.66
   6  -3   1   63.57    7.73
  -6   3  -1   67.00    7.33
  -6   3  -1   56.45    7.62
  -6   3  -2   34.38    6.20
   6  -3   2   36.88    6.77
   6  -3   2   31.92    7.04
   6  -3   2   32.23    5.73
  -6   3  -2   29.09    5.52
  -6   3  -2   35.60    5.87
   6  -3   3  625.73   25.05
   6  -3   3  639.55   25.62
   6  -3   3  636.77   25.15
  -6   3  -3  625.11   24.59
  -6   3  -3  620.35   25.57
  -6   3  -3  617.90   24.87
  -6   3  -4   68.37    9.32
   6  -3   4   75.31   10.10
   6  -3   4   76.70    9.82
   6  -3   4   84.73   10.88
  -6   3  -4   85.87   11.14
  -6   3  -4   71.46   10.97
   6  -3   5    7.86    5.03
   6  -3   5   29.21    9.40
  -6   3  -5   17.08    7.81
  -6   4   5  111.58   11.29
   6  -4  -5  116.39   11.67
   6  -4  -5  115.97   11.92
  -6   4   5  112.62   11.49
  -6   4   4  250.17   15.65
   6  -4  -4  232.36   15.23
   6  -4  -4  245.19   15.82
  -6   4   4  227.50   15.37
   6  -4  -3   61.53    8.27
  -6   4   3   57.64    7.71
  -6   4   2   21.90    5.21
   6  -4  -2   14.94    5.13
   6  -4  -2   19.22    5.05
   6  -4  -2   22.29    5.76
  -6   4   2   26.57    5.89
  -6   4   2   18.94    5.36
   6  -4  -1  178.73   12.80
   6  -4  -1  176.86   13.00
   6  -4  -1  187.65   13.66
  -6   4   1  179.88   13.40
  -6   4   1  179.02   12.79
  -6   4   1  189.73   13.91
  -6   4   0   42.54    7.11
   6  -4   0   47.66    7.08
   6  -4   0   33.13    5.86
   6  -4   0   60.32    8.55
  -6   4   0   55.54    8.26
  -6   4   0   43.89    6.92
   6  -4   1 1402.17   37.63
  -6   4  -1 1503.14   41.44
  -6   4  -1 1441.34   41.33
  -6   4  -1 1432.70   42.28
  -6   4  -2    9.58    6.66
  -6   4  -2    1.45    5.23
  -6   5   5   45.65    9.63
   6  -5  -5   45.19    8.01
   6  -5  -4    3.54    4.94
   6  -5  -4    5.65    4.76
  -6   5   4   12.95    6.60
   6  -5  -3    3.49    4.81
  -6   5   3    1.36    5.01
  -6   5   2   49.16   11.47
  -6   5   2   17.85    6.57
  -6   5   1    7.56    8.11
  -6   5   1   11.83    6.31
  -7   1  -1  228.59   16.00
  -7   1  -1  230.24   15.88
  -7   1  -2   10.36    4.96
   7  -1   2    1.58    4.04
  -7   1  -2    5.53    4.18
  -7   1  -2    8.36    4.92
  -7   1  -3    2.06    3.38
   7  -1   3    2.19    4.34
   7  -1   3    0.95    4.31
  -7   1  -3   -2.78    4.29
  -7   1  -4   24.81    6.11
   7  -1   4   39.38    8.21
   7  -1   4   39.74    8.49
  -7   1  -4   28.34    6.74
  -7   1  -4   28.65    7.04
   7  -2  -2   20.43    5.05
   7  -2  -2   26.66    5.59
  -7   2   2   19.21    5.57
  -7   2   2   18.92    5.62
  -7   2   1  128.49   11.53
   7  -2  -1  126.99   10.91
   7  -2  -1  120.13   10.35
   7  -2  -1  128.98   10.81
  -7   2   1  142.16   13.05
  -7   2   1  151.99   12.65
  -7   2   0   63.77    8.46
   7  -2   0   55.20    7.47
   7  -2   0   82.40    9.63
   7  -2   0   60.40    7.65
  -7   2   0   68.56    8.81
  -7   2   0   55.48    7.31
  -7   2  -1   46.31    7.61
   7  -2   1   53.29    8.05
   7  -2   1   51.71    8.26
  -7   2  -1   44.69    7.00
   7  -2   2  437.28   21.66
   7  -2   2  464.23   22.73
  -7   2  -2  399.74   20.30
  -7   2  -2  364.79   19.46
  -7   2  -3   11.87    3.98
   7  -2   3   19.23    4.98
   7  -2   3   21.79    7.65
   7  -2   3   10.57    4.47
  -7   2  -3    7.37    4.22
  -7   2  -3   17.61    5.53
  -7   2  -4   45.02    7.74
   7  -2   4   41.68    7.76
   7  -2   4   50.27    8.38
   7  -2   4   53.91    9.02
  -7   2  -4   46.02    7.92
  -7   2  -4   38.88    7.73
   7  -3  -4   11.48    6.00
  -7   3   4    6.11    4.73
   7  -3  -3   32.47    7.05
  -7   3   3   33.38    6.88
  -7   3   2   -6.84   15.00
   7  -3  -2   11.89    7.96
   7  -3  -2  -15.36    4.64
  -7   3   2    1.17    4.64
  -7   3   2    6.54    3.89
   7  -3  -1  134.27   12.25
   7  -3  -1  126.64   11.69
   7  -3  -1  145.11   12.22
  -7   3   1  136.10   11.88
  -7   3   1  132.87   11.65
  -7   3   1  127.77   11.55
  -7   3   0   -8.88    5.30
   7  -3   0    3.79    4.58
   7  -3   0    6.76    3.97
   7  -3   0    1.50    4.26
  -7   3   0    0.11    3.52
  -7   3   0   -8.76    5.52
   7  -3   1  332.22   18.91
   7  -3   1  314.34   18.75
  -7   3  -1  293.83   17.66
  -7   3  -1  318.24   18.46
   7  -3   2  138.85   13.02
   7  -3   2  154.96   13.91
  -7   3  -2  134.78   12.49
  -7   3  -2  130.92   12.18
  -7   3  -3    3.86    3.59
   7  -3   3   -3.14    4.45
   7  -3   3   -0.59    4.70
   7  -3   3    3.53    4.65
  -7   3  -3    8.57    4.87
  -7   3  -3   15.21    5.58
   7  -4  -3  165.71   14.77
  -7   4   3  148.28   13.74
   7  -4  -2  150.37   13.66
   7  -4  -2  132.47   12.68
  -7   4   2  134.61   12.82
  -7   4   2  155.49   13.22
  -7   4   1   45.11    7.59
   7  -4  -1   51.84    8.27
   7  -4  -1   46.31    7.80
   7  -4  -1   53.99    8.63
  -7   4   1   39.69    7.41
  -7   4   1   43.60    7.65
  -7   4   0   10.66    5.36
   7  -4   0   23.81    5.93
   7  -4   0   14.29    4.29
   7  -4   0   12.79    5.10
  -7   4   0   15.80    5.73
  -7   4   0   24.47    6.96
   7  -4   1  123.73   13.10
   7  -4   1  110.25   11.95
  -7   4  -1  125.99   13.35
  -7   4  -1  139.21   14.71
  -7   4  -2    6.32    6.32
   7  -4   2    5.01    4.59
   7  -4   2    7.34    6.00
  -7   4  -2    2.29    5.00
  -7   5   1    2.61    7.45
   7  -5  -1    4.84    4.26
  -7   5   1    3.89    8.24
  -7   5   0   21.53   12.34
   7  -5   0   35.27    6.82
  -8   2   0    5.98    5.12
  -8   3   1   30.98    7.79
   0   0   0    0.00    0.00


TITL diethyl_ether_phase_beta_2_65GPa in P2(1)/c
REM P2(1)/c (#14 in standard setting)
CELL 0.71073   6.761231   8.027080   7.668661  90.0000  93.7837  90.0000
ZERR    4.00   0.000310   0.001542   0.000251   0.0000   0.0037   0.0000
LATT  1
SYMM -x, y+1/2,-z+1/2
SFAC C H O
UNIT 16.00 40.00 4.00
TREF
HKLF 4
END
_computing_structure_solution     'SHELXT 2018/2 (Sheldrick, 2018)'
;
_shelx_hkl_checksum              69727
_olex2_submission_special_instructions 'No special instructions were received'
loop_
_space_group_symop_operation_xyz
'x, y, z'
'-x, y+1/2, -z+1/2'
'-x, -y, -z'
'x, -y-1/2, z-1/2'
loop_
_atom_site_label
_atom_site_type_symbol
_atom_site_fract_x
_atom_site_fract_y
_atom_site_fract_z
_atom_site_U_iso_or_equiv
_atom_site_adp_type
_atom_site_occupancy
_atom_site_site_symmetry_order
_atom_site_calc_flag
_atom_site_refinement_flags_posn
_atom_site_refinement_flags_adp
_atom_site_refinement_flags_occupancy
_atom_site_disorder_assembly
_atom_site_disorder_group
O1 O 0.17622(14) 0.3155(3) 0.16649(13) 0.0278(11) Uani 1 1 d . . . . .
C1 C 0.0735(3) 0.4566(4) 0.22999(19) 0.0268(13) Uani 1 1 d . . . . .
H11 H 0.031527 0.529766 0.133855 0.032 Uiso 1 1 calc R U . . .
H12 H 0.159858 0.518882 0.312373 0.032 Uiso 1 1 calc R U . . .
C2 C -0.1039(2) 0.3932(4) 0.3183(2) 0.0319(11) Uani 1 1 d . . . . .
H21 H -0.186243 0.329073 0.236584 0.048 Uiso 1 1 calc R U . . .
H23 H -0.178158 0.485834 0.358769 0.048 Uiso 1 1 calc R U . . .
H22 H -0.060485 0.324379 0.415731 0.048 Uiso 1 1 calc R U . . .
C3 C 0.3450(2) 0.3690(5) 0.0800(2) 0.0334(13) Uani 1 1 d . . . . .
H31 H 0.425138 0.443431 0.155130 0.040 Uiso 1 1 calc R U . . .
H32 H 0.303322 0.428584 -0.026219 0.040 Uiso 1 1 calc R U . . .
C4 C 0.4637(3) 0.2176(4) 0.0368(2) 0.0291(13) Uani 1 1 d . . . . .
H42 H 0.384657 0.146419 -0.040428 0.044 Uiso 1 1 calc R U . . .
H41 H 0.502092 0.158327 0.142362 0.044 Uiso 1 1 calc R U . . .
H43 H 0.580088 0.251639 -0.019055 0.044 Uiso 1 1 calc R U . . .
loop_
_atom_site_aniso_label
_atom_site_aniso_U_11
_atom_site_aniso_U_22
_atom_site_aniso_U_33
_atom_site_aniso_U_23
_atom_site_aniso_U_13
_atom_site_aniso_U_12
O1 0.0255(9) 0.024(4) 0.0350(7) -0.0031(6) 0.0111(6) -0.0023(5)
C1 0.0255(10) 0.028(4) 0.0274(8) -0.0028(9) 0.0024(7) 0.0015(10)
C2 0.0266(12) 0.037(4) 0.0331(8) -0.0035(10) 0.0077(8) 0.0024(9)
C3 0.0249(13) 0.046(5) 0.0299(9) 0.0026(10) 0.0087(9) -0.0011(10)
C4 0.0268(12) 0.030(5) 0.0309(8) -0.0030(10) 0.0053(7) -0.0017(10)
loop_
_atom_type_symbol
_atom_type_description
_atom_type_scat_dispersion_real
_atom_type_scat_dispersion_imag
_atom_type_scat_source
C C 0.0033 0.0016 'International Tables Vol C Tables 4.2.6.8 and 6.1.1.4'
H H 0.0000 0.0000 'International Tables Vol C Tables 4.2.6.8 and 6.1.1.4'
O O 0.0106 0.0060 'International Tables Vol C Tables 4.2.6.8 and 6.1.1.4'
loop_
_geom_angle_atom_site_label_1
_geom_angle_atom_site_label_2
_geom_angle_atom_site_label_3
_geom_angle
_geom_angle_site_symmetry_1
_geom_angle_site_symmetry_3
_geom_angle_publ_flag
C3 O1 C1 110.0(3) . . ?
O1 C1 H11 110.2 . . ?
O1 C1 H12 110.2 . . ?
O1 C1 C2 107.7(3) . . ?
H11 C1 H12 108.5 . . ?
C2 C1 H11 110.2 . . ?
C2 C1 H12 110.2 . . ?
C1 C2 H21 109.5 . . ?
C1 C2 H23 109.5 . . ?
C1 C2 H22 109.5 . . ?
H21 C2 H23 109.5 . . ?
H21 C2 H22 109.5 . . ?
H23 C2 H22 109.5 . . ?
O1 C3 H31 110.0 . . ?
O1 C3 H32 110.0 . . ?
O1 C3 C4 108.3(3) . . ?
H31 C3 H32 108.4 . . ?
C4 C3 H31 110.0 . . ?
C4 C3 H32 110.0 . . ?
C3 C4 H42 109.5 . . ?
C3 C4 H41 109.5 . . ?
C3 C4 H43 109.5 . . ?
H42 C4 H41 109.5 . . ?
H42 C4 H43 109.5 . . ?
H41 C4 H43 109.5 . . ?
loop_
_geom_bond_atom_site_label_1
_geom_bond_atom_site_label_2
_geom_bond_distance
_geom_bond_site_symmetry_2
_geom_bond_publ_flag
O1 C1 1.431(3) . ?
O1 C3 1.424(2) . ?
C1 H11 0.9700 . ?
C1 H12 0.9700 . ?
C1 C2 1.504(3) . ?
C2 H21 0.9600 . ?
C2 H23 0.9600 . ?
C2 H22 0.9600 . ?
C3 H31 0.9700 . ?
C3 H32 0.9700 . ?
C3 C4 1.505(5) . ?
C4 H42 0.9600 . ?
C4 H41 0.9600 . ?
C4 H43 0.9600 . ?
loop_
_geom_torsion_atom_site_label_1
_geom_torsion_atom_site_label_2
_geom_torsion_atom_site_label_3
_geom_torsion_atom_site_label_4
_geom_torsion
_geom_torsion_site_symmetry_1
_geom_torsion_site_symmetry_2
_geom_torsion_site_symmetry_3
_geom_torsion_site_symmetry_4
_geom_torsion_publ_flag
C1 O1 C3 C4 172.46(12) . . . . ?
C3 O1 C1 C2 179.44(10) . . . . ?
