#------------------------------------------------------------------------------
#$Date: 2024-02-05 14:09:55 +0200 (Mon, 05 Feb 2024) $
#$Revision: 289697 $
#$URL: file:///home/coder/svn-repositories/cod/cif/1/57/04/1570444.cif $
#------------------------------------------------------------------------------
#
# This file is available in the Crystallography Open Database (COD),
# http://www.crystallography.net/
#
# All data on this site have been placed in the public domain by the
# contributors.
#
data_1570444
loop_
_publ_author_name
'Sacharczuk, Natalia'
'Olejniczak, Anna'
'Bujak, Maciej'
'Dziubek, Kamil Filip'
'Katrusiak, Andrzej'
'Podsiad&#x142;o, Marcin'
_publ_section_title
;
 Conformation-aggregation interplay in the simplest aliphatic ethers
 probed under high pressure.
;
_journal_issue                   'Pt 1'
_journal_name_full               IUCrJ
_journal_page_first              57
_journal_page_last               61
_journal_paper_doi               10.1107/S2052252523009995
_journal_volume                  11
_journal_year                    2024
_chemical_formula_moiety         'C4 H10 O'
_chemical_formula_sum            'C4 H10 O'
_chemical_formula_weight         74.12
_chemical_name_systematic        'diethyl ether'
_space_group_crystal_system      triclinic
_space_group_IT_number           2
_space_group_name_Hall           '-P 1'
_space_group_name_H-M_alt        'P -1'
_atom_sites_solution_hydrogens   geom
_atom_sites_solution_primary     dual
_audit_creation_method
;
Olex2 1.5
(compiled 2022.04.07 svn.rca3783a0 for OlexSys, GUI svn.r6498)
;
_cell_angle_alpha                97.275(8)
_cell_angle_beta                 102.728(6)
_cell_angle_gamma                96.747(10)
_cell_formula_units_Z            2
_cell_length_a                   5.1196(4)
_cell_length_b                   5.6659(10)
_cell_length_c                   7.2999(4)
_cell_measurement_reflns_used    846
_cell_measurement_temperature    295(2)
_cell_measurement_theta_max      26.0770
_cell_measurement_theta_min      5.0820
_cell_volume                     202.56(4)
_computing_cell_refinement       'CrysAlisPro 1.171.42.49 (Rigaku OD, 2022)'
_computing_data_collection       'CrysAlisPro 1.171.42.49 (Rigaku OD, 2022)'
_computing_data_reduction        'CrysAlisPro 1.171.42.49 (Rigaku OD, 2022)'
_computing_molecular_graphics    'Olex2 1.5 (Dolomanov et al., 2009)'
_computing_publication_material  'Olex2 1.5 (Dolomanov et al., 2009)'
_computing_structure_refinement  'SHELXL 2018/3 (Sheldrick, 2015)'
_computing_structure_solution    'SHELXT 2018/2 (Sheldrick, 2018)'
_diffrn_ambient_environment      'diamond-anvil cell'
_diffrn_ambient_pressure         2800000
_diffrn_ambient_temperature      295(2)
_diffrn_measured_fraction_theta_full 0.320
_diffrn_measured_fraction_theta_max 0.305
_diffrn_measurement_device_type  'KUMA KM4-CCD, Eos'
_diffrn_measurement_method       '\f- and \w-scans'
_diffrn_radiation_type           MoK\a
_diffrn_radiation_wavelength     0.71073
_diffrn_reflns_av_R_equivalents  0.0138
_diffrn_reflns_av_unetI/netI     0.0102
_diffrn_reflns_Laue_measured_fraction_full 0.320
_diffrn_reflns_Laue_measured_fraction_max 0.305
_diffrn_reflns_limit_h_max       6
_diffrn_reflns_limit_h_min       -6
_diffrn_reflns_limit_k_max       4
_diffrn_reflns_limit_k_min       -4
_diffrn_reflns_limit_l_max       8
_diffrn_reflns_limit_l_min       -8
_diffrn_reflns_number            1217
_diffrn_reflns_point_group_measured_fraction_full 0.320
_diffrn_reflns_point_group_measured_fraction_max 0.305
_diffrn_reflns_theta_full        25.242
_diffrn_reflns_theta_max         26.126
_diffrn_reflns_theta_min         5.095
_exptl_absorpt_coefficient_mu    0.084
_exptl_absorpt_correction_T_max  1.00000
_exptl_absorpt_correction_T_min  0.67525
_exptl_absorpt_correction_type   multi-scan
_exptl_absorpt_process_details
;
CrysAlisPro 1.171.42.49 (Rigaku Oxford Diffraction, 2022)
Empirical absorption correction using spherical harmonics,
implemented in SCALE3 ABSPACK scaling algorithm.
;
_exptl_crystal_colour            colourless
_exptl_crystal_density_diffrn    1.215
_exptl_crystal_description       disc
_exptl_crystal_F_000             84
_exptl_crystal_size_max          0.36
_exptl_crystal_size_mid          0.36
_exptl_crystal_size_min          0.23
_refine_diff_density_max         0.086
_refine_diff_density_min         -0.079
_refine_diff_density_rms         0.019
_refine_ls_extinction_method     none
_refine_ls_goodness_of_fit_ref   1.179
_refine_ls_hydrogen_treatment    constr
_refine_ls_matrix_type           full
_refine_ls_number_parameters     48
_refine_ls_number_reflns         244
_refine_ls_number_restraints     0
_refine_ls_restrained_S_all      1.179
_refine_ls_R_factor_all          0.0419
_refine_ls_R_factor_gt           0.0388
_refine_ls_shift/su_max          0.000
_refine_ls_shift/su_mean         0.000
_refine_ls_structure_factor_coef Fsqd
_refine_ls_weighting_details
'w=1/[\s^2^(Fo^2^)+(0.0403P)^2^+0.0893P] where P=(Fo^2^+2Fc^2^)/3'
_refine_ls_weighting_scheme      calc
_refine_ls_wR_factor_gt          0.0980
_refine_ls_wR_factor_ref         0.1000
_reflns_Friedel_coverage         0.000
_reflns_number_gt                225
_reflns_number_total             244
_reflns_threshold_expression     'I > 2\s(I)'
_cod_data_source_file            lq5055.cif
_cod_data_source_block           diethyl_ether_phase_delta_2_80GPa
_cod_depositor_comments
'Adding full bibliography for 1570433--1570452.cif.'
_cod_database_code               1570444
_shelx_shelxl_version_number     2018/3
_shelx_space_group_comment
;
The symmetry employed for this shelxl refinement is uniquely defined
by the following loop, which should always be used as a source of
symmetry information in preference to the above space-group names.
They are only intended as comments.
;
_exptl_absorpt_special_details
;
Data were collected at room temperature (295(2) K) and pressure of 2.80(2) GPa
(2800000 kPa).
;
_olex2_refinement_description
;
1. Fixed Uiso
 At 1.2 times of:
  All C(H,H) groups
 At 1.5 times of:
  All C(H,H,H) groups
2.a Secondary CH2 refined with riding coordinates:
 C1(H11,H12), C3(H31,H32)
2.b Idealised Me refined as rotating group:
 C2(H21,H23,H22), C4(H41,H43,H42)
;
_shelx_res_file
;
TITL 1ede_a.res in P-1
    1ede.res
    created by SHELXL-2018/3 at 13:01:02 on 22-Dec-2022
REM Old TITL 1ede in P-1
REM SHELXT solution in P-1: R1 0.220, Rweak 0.011, Alpha 0.053
REM <I/s> 0.000 for 0 systematic absences, Orientation as input
REM Formula found by SHELXT: C4 O
CELL 0.71073 5.1196 5.6659 7.2999 97.275 102.728 96.747
ZERR 2 0.0004 0.001 0.0004 0.008 0.006 0.01
LATT 1
SFAC C H O
UNIT 8 20 2

L.S. 50
PLAN  10
TEMP 25
CONF
BOND
list 4
fmap 2 53
MORE -1
BOND $H
ACTA
REM <olex2.extras>
REM <HklSrc "%.\\1ede.hkl">
REM </olex2.extras>

WGHT    0.040300    0.089300
FVAR       4.84472
O1    3    0.502871    0.207339    0.318988    11.00000    0.03137    0.07067 =
         0.03487    0.01741    0.01318    0.02574
C1    1    0.549824    0.435212    0.265262    11.00000    0.03580    0.07209 =
         0.02811    0.01174    0.00925    0.02589
AFIX  23
H11   2    0.628013    0.422259    0.155505    11.00000   -1.20000
H12   2    0.676772    0.543641    0.368504    11.00000   -1.20000
AFIX   0
C2    1    0.285564    0.533622    0.217518    11.00000    0.03555    0.05959 =
         0.03272    0.01214    0.00943    0.02362
AFIX 137
H21   2    0.167648    0.435123    0.106701    11.00000   -1.50000
H23   2    0.319899    0.695440    0.192897    11.00000   -1.50000
H22   2    0.201188    0.532848    0.322611    11.00000   -1.50000
AFIX   0
C3    1    0.743867    0.098725    0.359255    11.00000    0.03829    0.07422 =
         0.02912    0.00877    0.00651    0.03570
AFIX  23
H31   2    0.717200   -0.027165    0.434745    11.00000   -1.20000
H32   2    0.892291    0.218957    0.434044    11.00000   -1.20000
AFIX   0
C4    1    0.819666   -0.008219    0.179771    11.00000    0.04420    0.08617 =
         0.03445    0.00770    0.01251    0.03598
AFIX 137
H41   2    0.679133   -0.135463    0.109703    11.00000   -1.50000
H43   2    0.986759   -0.071269    0.213696    11.00000   -1.50000
H42   2    0.840957    0.114565    0.102610    11.00000   -1.50000
AFIX   0
HKLF 4




REM  1ede_a.res in P-1
REM wR2 = 0.1000, GooF = S = 1.179, Restrained GooF = 1.179 for all data
REM R1 = 0.0388 for 225 Fo > 4sig(Fo) and 0.0419 for all 244 data
REM 48 parameters refined using 0 restraints

END

WGHT      0.0403      0.0893

REM Highest difference peak  0.086,  deepest hole -0.079,  1-sigma level  0.019
Q1    1   0.7138 -0.0124  0.0774  11.00000  0.05    0.09
Q2    1   0.1830  0.4750  0.3011  11.00000  0.05    0.08
Q3    1   0.8014  0.0754  0.2616  11.00000  0.05    0.08
Q4    1   0.8354  0.1477  0.4664  11.00000  0.05    0.07
Q5    1   0.7790  0.6204  0.1963  11.00000  0.05    0.05
Q6    1   0.9250 -0.1852  0.1979  11.00000  0.05    0.05
Q7    1   0.9457 -0.1298  0.1995  11.00000  0.05    0.05
Q8    1   0.7164  0.5488  0.1869  11.00000  0.05    0.05
Q9    1   0.9980 -0.0047  0.2082  11.00000  0.05    0.05
Q10   1   0.6779  0.5013  0.1578  11.00000  0.05    0.05
;
_shelx_res_checksum              68881
_shelx_hkl_file
;
   0   0  -3  529.08   10.55
   0   0   3  503.76   10.55
   0   0  -3  516.54   10.82
   0   0   3  510.56    9.65
   0   0  -3  507.84    9.69
   0   0   3  478.14    8.74
   0   0  -3  499.55   10.59
   0   0  -3  489.38    8.64
   0   0   4   18.24    2.83
   0   0  -4   15.09    2.68
   0   0   4   10.22    1.80
   0   0  -4   13.46    1.81
   0   0   4   20.99    2.90
   0   0  -4   13.97    3.02
   0   0   4   11.16    1.99
   0   0   5    4.81    2.14
   0   0  -5    2.81    2.00
   0   0   5    4.00    2.25
   0   0   5    3.32    1.55
   0   0  -5    3.61    2.09
   0   0   5    2.36    1.45
   0   0  -5    2.65    2.01
   0   0  -5    2.54    1.31
   0   0  -6  238.86   11.10
   0   0  -6  238.55   11.22
   0   0   6  244.45   11.28
   0   0   6  258.96   11.51
   0   0  -6  254.04   11.45
   0   0   6  236.69   11.11
   0   0  -7  127.56    9.37
   0   0  -7  140.70    9.63
   0   0   7  131.20    9.45
   0   0  -7  137.27    9.65
   0   0   7  132.80    9.41
   0   0   7  144.77   10.01
   0   0   8   16.42    4.24
   0   0  -8    5.64    3.58
   0   0   8    6.99    4.21
   0   0   8   13.93    4.33
   0   0  -8    6.19    3.46
   0  -1   8  143.90   11.23
   0  -1   8  137.12   10.81
   0   1  -8  131.40   10.36
   0   1  -8  148.06   10.66
   0  -1   8  148.66   10.97
   0   1  -8  128.23   10.56
   0  -1   7   15.25    4.29
   0   1  -7   15.20    3.57
   0   1  -7    8.47    3.14
   0  -1   7   10.15    3.48
   0  -1   7   16.26    4.40
   0   1  -7   12.45    3.47
   0   1  -6  433.15   15.40
   0  -1   6  434.45   15.26
   0   1  -6  429.61   14.52
   0   1  -6  396.54   14.38
   0   1  -5  131.32    7.72
   0  -1   5  134.11    7.69
   0   1  -5  136.01    7.53
   0   1  -5  138.64    7.33
   0  -1   4   11.99    1.83
   0   1  -4    9.32    2.14
   0   1  -4   16.86    2.14
   0   1  -4    9.75    1.86
   0   1  -4   12.92    2.23
   0   1  -4   10.58    2.17
   0  -1   4   10.70    1.95
   0   1  -3   22.33    2.45
   0   1  -3   23.73    2.55
   0   1  -3   21.95    2.21
   0   1  -3   22.56    2.60
   0  -1   3   22.79    2.59
   0  -1  -3   68.12    4.26
   0   1   3   67.66    4.48
   0  -1  -3   61.26    4.13
   0  -1  -3   66.41    4.43
   0  -1  -4 5888.40   52.89
   0  -1  -4 5747.11   50.65
   0   1   4 5821.96   52.81
   0  -1  -4 5825.98   51.18
   0  -1  -5  315.42   11.53
   0  -1  -5  333.05   12.24
   0   1   5  287.90   11.35
   0  -1  -5  327.23   11.23
   0   1   6 1104.75   24.64
   0  -1  -6 1072.31   23.97
   0  -1  -6 1141.58   25.41
   0  -1  -7  107.24    8.54
   0   1   7  102.04    8.25
   0  -1  -7  100.52    8.20
   0  -1  -8   25.45    5.19
   0  -1  -8   28.47    5.43
   0   2  -7    2.05    3.35
   1  -2  -7   49.90    6.37
   1  -2  -7   56.68    6.79
   1  -2  -6  221.39   11.84
   1  -2  -6  236.00   11.92
   1  -2  -5   31.24    4.47
   1  -2  -5   23.39    3.86
   1  -2  -4  246.00   10.22
   1  -2  -4  237.76    9.15
   1  -2  -4  266.09   10.88
  -1   2   4  219.41    8.85
  -1   2  -3    1.46    1.28
  -1   2  -3    0.61    1.41
  -1   2  -3    1.08    0.94
  -1   2  -4   20.67    3.24
  -1   2  -4   21.02    2.93
  -1   2  -4   17.87    3.10
  -1   2  -5   55.28    5.49
  -1   2  -5   59.41    5.23
   1  -2   5   62.15    5.92
  -1   2  -5   58.34    5.76
   1  -2   6   65.82    6.74
  -1   2  -6   71.46    6.80
  -1   2  -6   61.68    6.40
  -1   2  -7    0.27    2.97
   1  -2   7   -0.60    2.54
  -1   2  -7    5.22    3.39
  -1   2  -8   21.69    5.47
  -1   2  -8   14.04    4.31
   1  -2   8   10.95    4.90
  -1   1   8   97.10    9.08
   1  -1  -8   83.78    8.73
  -1   1   7   81.60    7.42
   1  -1  -7   86.67    7.93
   1  -1  -7   83.21    7.52
  -1   1   7   88.16    7.85
  -1   1   6 1772.40   31.01
  -1   1   6 1798.25   31.50
   1  -1  -6 1723.60   31.65
   1  -1  -6 1791.25   30.87
   1  -1  -5   78.47    5.16
  -1   1   5   77.29    5.79
  -1   1   5   82.93    6.19
   1  -1  -5   82.30    5.97
   1  -1  -5   82.49    6.13
  -1   1   5   83.76    5.61
   1  -1  -5   79.85    5.38
  -1   1   4 6262.28   52.56
  -1   1   4 6301.89   49.57
   1  -1  -4 6223.79   53.08
   1  -1  -4 6259.31   54.30
   1  -1  -4 6316.09   49.26
   1  -1  -4 6410.94   50.12
   1  -1  -4 6289.91   49.31
  -1   1   4 6247.17   50.43
   1  -1  -4 6288.71   54.68
  -1   1   4 6253.21   53.86
  -1   1   4 6399.69   54.50
   1  -1  -3 3092.35   31.75
   1  -1  -3 3131.41   30.69
  -1   1   3 3014.04   30.42
  -1   1   3 3021.62   31.49
   1  -1  -3 3092.73   29.06
  -1   1   3 3066.21   29.28
   1  -1  -3 3090.86   27.04
  -1   1   3 3048.32   30.01
   1  -1  -3 3035.42   30.74
   1  -1  -2 6682.14   45.89
   1  -1  -2 6751.22   48.59
  -1   1   2 6747.89   47.27
   1  -1  -2 6762.86   46.77
  -1   1   2 6580.23   48.15
   1  -1  -2 6686.08   47.58
  -1   1   2 6782.81   46.15
  -1   1   2 6744.28   47.45
  -1   1   1   -0.17    0.50
   1  -1  -1   14.36    1.55
  -1   1   1    9.51    1.26
   1  -1  -1    1.19    0.50
  -1   1   1    0.35    0.46
   1  -1  -1    6.10    0.91
   1  -1  -1    0.27    0.42
  -1   1   1   -0.58    0.66
  -1   1   0  128.50    4.05
   1  -1   0  125.82    4.22
  -1   1   0  127.53    4.21
  -1   1  -1 3865.66   29.44
  -1   1  -1 3812.33   29.32
  -1   1  -1 3897.28   30.67
  -1   1  -1 3773.84   29.62
   1  -1   1 3804.01   29.19
   1  -1   1 3843.49   29.94
   1  -1   1 3808.87   30.47
  -1   1  -2  912.82   12.29
  -1   1  -2  885.02   14.12
   1  -1   2  905.72   14.33
  -1   1  -2  927.60   12.61
   1  -1   2  904.51   14.30
  -1   1  -2  910.19   14.27
   1  -1   2  893.27   12.89
  -1   1  -2  909.33   14.23
  -1   1  -3  122.10    5.21
   1  -1   3  109.73    4.55
   1  -1   3  116.20    5.59
  -1   1  -3  110.61    5.47
  -1   1  -3  113.32    5.70
  -1   1  -3  124.51    5.82
  -1   1  -3  114.46    4.40
   1  -1   3  113.83    5.87
   1  -1   4  901.90   17.63
  -1   1  -4  874.62   16.74
  -1   1  -4  898.68   18.12
   1  -1   4  838.26   18.13
  -1   1  -4  873.69   18.25
   1  -1   4  861.28   16.57
  -1   1  -4  844.03   16.37
   1  -1   5    2.35    2.21
   1  -1   5    1.53    1.58
  -1   1  -5   -1.66    2.13
  -1   1  -5    2.07    1.93
   1  -1   5    1.31    1.99
  -1   1  -5   -0.36    1.92
  -1   1  -5   -0.23    2.27
   1  -1   5   -0.10    1.96
  -1   1  -6  362.48   14.53
   1  -1   6  383.15   14.32
   1  -1   6  387.01   14.96
  -1   1  -6  373.36   13.84
  -1   1  -6  393.24   14.73
   1  -1   6  405.03   15.59
  -1   1  -7   49.54    6.05
  -1   1  -7   60.21    6.91
   1  -1   7   60.22    6.71
  -1   1  -7   55.07    6.69
   1  -1   7   55.27    6.74
   1  -1   7   61.37    7.23
   1  -1   8   87.64    8.74
  -1   1  -8   84.39    9.01
  -1   1  -8   85.32    8.76
   1  -1   8  100.94   10.30
   1  -1   8   96.65    9.85
  -1   1  -8   95.14    9.57
   1   0  -8   19.51    4.58
  -1   0   8   25.15    5.65
   1   0  -7  125.93    8.98
   1   0  -7  145.43    9.31
  -1   0   7  138.83    9.65
  -1   0   7  133.55    9.09
  -1   0   6    9.28    2.86
  -1   0   6    3.98    2.13
   1   0  -6    5.50    2.77
  -1   0   6    7.99    2.64
   1   0  -6    7.44    2.44
   1   0  -6    4.03    1.92
  -1   0   6    9.94    3.16
   1   0  -6    4.80    1.88
  -1   0   5 3143.13   37.51
   1   0  -5 3187.86   38.33
   1   0  -5 3101.67   33.84
   1   0  -5 3064.59   35.78
  -1   0   5 3235.40   35.90
  -1   0   5 3153.42   36.80
   1   0  -5 3095.52   36.59
   1   0  -4  322.94    8.47
  -1   0   4  334.91    9.22
  -1   0   4  303.38    8.02
   1   0  -4  320.80   10.01
   1   0  -4  308.51    9.70
   1   0  -4  315.25    8.25
   1   0  -4  312.89    9.14
  -1   0   4  336.10   10.02
   1   0  -4  298.33    8.26
  -1   0   4  311.41    8.35
  -1   0   3 9738.86   64.93
  -1   0   3 9672.37   62.62
   1   0  -3 9722.35   61.30
  -1   0   3 9644.58   61.61
   1   0  -3 9718.71   64.89
   1   0  -3 9700.36   61.66
   1   0  -3 9999.00   59.88
   1   0  -3 9699.69   62.02
   1   0  -3 9747.93   64.97
  -1   0   3 9665.32   61.25
  -1   0  -1 6233.85   42.73
  -1   0  -1 6093.87   43.90
   1   0   2 1102.68   14.78
  -1   0  -2 1049.42   15.34
  -1   0  -2 1129.06   16.57
  -1   0  -2 1169.88   16.97
  -1   0  -2 1152.96   14.78
   1   0   2 1126.74   16.36
   1   0   3  465.07    8.72
   1   0   3  472.92   12.01
  -1   0  -3  490.32   11.10
  -1   0  -3  466.10    8.61
  -1   0  -3  502.67   11.34
   1   0   3  494.00   11.48
  -1   0  -3  510.97   12.44
  -1   0  -3  458.23   11.63
   1   0   4   85.63    5.56
  -1   0  -4   93.81    6.02
  -1   0  -4   90.52    5.69
  -1   0  -4   89.65    5.43
   1   0   4   87.29    5.85
  -1   0  -4   81.42    5.64
   1   0   5    0.50    2.00
   1   0   5    1.36    2.20
  -1   0  -5   -0.44    1.94
  -1   0  -5   -2.59    2.49
  -1   0  -5   -1.20    2.06
   1   0   6    5.63    3.67
   1   0   6    4.44    2.98
  -1   0  -6   12.68    3.78
  -1   0  -6    1.27    2.67
  -1   0  -6    3.08    2.76
   1   0   7    3.82    3.05
   1   0   7    5.80    3.43
  -1   0  -7    9.26    3.43
  -1   0  -7   -0.04    3.28
  -1   0  -7    1.74    4.03
   1   0   7    3.35    2.93
  -1   0  -8    7.59    3.45
   1   0   8    7.11    3.88
   1   0   8   11.73    4.20
  -1   0  -8   11.32    4.31
  -1   0  -8   12.91    4.64
  -1  -1   8  422.87   18.56
   1   1  -8  440.57   18.98
   1   1  -7  570.81   19.71
   1   1  -7  541.22   17.35
   1   1  -6  389.81   13.43
  -1  -1   6  411.12   14.20
   1   1  -6  394.07   14.65
  -1  -1   5 1480.52   24.87
   1   1  -5 1482.00   26.35
   1   1  -5 1483.17   24.23
   1   1  -4   17.86    2.68
   1   1  -4   26.43    3.19
  -1  -1  -5   44.19    4.42
  -1  -1  -5   45.04    4.69
  -1  -1  -6   20.34    3.90
  -1  -1  -6   21.83    3.94
  -2   3  -4  126.90    8.00
  -2   3  -4  116.44    7.49
  -2   3  -5  956.06   23.62
  -2   3  -5  880.86   22.61
  -2   3  -6  206.65   12.08
  -2   3  -6  244.47   13.24
   2  -2  -8   57.58    7.44
   2  -2  -8   64.51    7.95
  -2   2   7   91.27    8.46
   2  -2  -7   80.28    7.79
   2  -2  -7   85.92    8.40
  -2   2   6   80.21    7.08
  -2   2   6   82.85    6.96
   2  -2  -6   89.09    7.73
   2  -2  -6   87.74    7.30
  -2   2   5   49.11    5.33
   2  -2  -5   52.44    5.01
   2  -2  -5   51.02    4.95
   2  -2  -5   45.91    5.19
  -2   2   5   46.41    4.86
  -2   2   5   45.84    4.73
  -2   2   4  184.41    9.00
   2  -2  -4  178.25    9.13
   2  -2  -4  170.52    8.11
   2  -2  -4  170.00    7.78
   2  -2  -4  163.02    8.57
  -2   2   4  167.35    8.31
  -2   2   4  178.70    9.16
   2  -2  -3    8.56    1.69
   2  -2  -3    7.61    2.22
  -2   2   3    7.28    2.10
  -2   2   3    5.61    2.11
   2  -2  -3    5.45    1.97
  -2   2   3    4.84    1.59
  -2   2   3    6.44    1.51
   2  -2  -3    5.76    1.80
  -2   2   2  149.78    7.29
   2  -2  -2  125.33    6.23
  -2   2   2  141.23    6.40
   2  -2  -2  132.09    5.01
   2  -2  -2  136.69    6.78
   2  -2  -2  147.69    7.15
   2  -2  -2  131.66    6.61
  -2   2   2  129.92    6.36
  -2   2   2  140.01    7.07
  -2   2   1  512.95   12.81
   2  -2  -1  440.20   11.61
  -2   2   1  481.93   10.30
   2  -2  -1  493.70   11.13
   2  -2  -1  514.86   12.96
  -2   2   1  460.60   12.11
   2  -2  -1  493.07   12.28
  -2   2   1  505.05   12.33
   2  -2   0 9275.31   60.15
   2  -2   0 9166.95   66.23
   2  -2   0 9263.84   68.01
   2  -2   0 9126.56   66.26
  -2   2   0 9157.79   66.69
  -2   2   0 9154.15   67.59
   2  -2   0 9193.78   67.74
  -2   2   0 9281.63   67.83
  -2   2   0 9187.08   58.61
  -2   2   0 9114.37   65.45
   2  -2   1  106.61    5.78
   2  -2   1  108.63    5.88
  -2   2  -1  109.60    5.77
  -2   2  -1  109.47    5.08
  -2   2  -1  108.63    5.14
  -2   2  -1  108.79    5.79
   2  -2   1   96.19    4.70
   2  -2   2 4061.47   40.37
  -2   2  -2 4050.23   40.08
  -2   2  -2 4088.16   40.85
  -2   2  -2 4008.87   42.97
   2  -2   2 4062.51   34.35
  -2   2  -2 4046.55   41.27
   2  -2   2 4094.11   41.54
   2  -2   2 4111.14   42.48
   2  -2   3   37.14    3.80
  -2   2  -3   43.62    4.68
  -2   2  -3   45.31    4.44
  -2   2  -3   44.45    3.98
   2  -2   3   35.89    4.08
  -2   2  -3   38.33    4.00
   2  -2   3   36.65    4.12
   2  -2   4   26.98    4.12
   2  -2   4   26.39    4.06
  -2   2  -4   27.88    4.28
  -2   2  -4   27.19    4.21
  -2   2  -4   33.07    4.27
   2  -2   5  108.14    7.93
  -2   2  -5  108.42    7.94
  -2   2  -5  111.83    8.38
   2  -2   5  113.27    8.32
  -2   2  -5  104.96    8.05
   2  -2   6  205.84   12.39
   2  -2   6  197.20   11.84
  -2   2  -6  187.55   10.81
  -2   2  -6  199.05   11.91
  -2   2  -6  182.55   11.32
   2  -2   6  182.62   11.14
   2  -2   7  659.67   24.03
  -2   2  -7  648.11   23.24
  -2   2  -7  622.08   22.89
   2  -2   7  578.72   22.04
  -2   1   8  197.52   12.63
  -2   1   8  214.22   13.27
   2  -1  -8  198.58   12.59
   2  -1  -8  207.96   12.98
  -2   1   7  313.32   14.14
   2  -1  -7  294.19   13.84
   2  -1  -7  312.97   14.58
  -2   1   7  331.83   15.09
  -2   1   6  238.75   11.09
   2  -1  -6  216.61   10.79
   2  -1  -6  221.39   11.39
  -2   1   6  237.38   11.56
  -2   1   5   27.86    4.04
  -2   1   5   18.66    2.98
   2  -1  -5   24.73    3.37
   2  -1  -5   24.95    3.74
  -2   1   5   31.46    3.77
  -2   1   5   21.38    3.18
   2  -1  -5   24.32    3.79
   2  -1  -5   24.90    3.39
  -2   1   4    2.15    1.70
  -2   1   4    0.05    1.67
   2  -1  -4    1.92    1.65
   2  -1  -4    0.13    1.40
  -2   1   4    1.88    1.48
   2  -1  -4   -0.07    1.46
  -2   1   4    0.54    1.30
   2  -1  -4    0.36    1.32
  -2   1   3  503.83   12.33
  -2   1   3  492.23   11.89
  -2   1   3  496.47   10.64
   2  -1  -3  498.60   11.04
   2  -1  -3  487.76   10.36
   2  -1  -3  510.32   12.73
  -2   1   3  514.34   12.39
  -2   1   3  487.80   10.35
   2  -1  -3  490.04   12.01
   2  -1  -3  507.15   12.48
  -2   1   2  239.78    7.45
  -2   1   2  230.41    7.66
  -2   1   2  241.96    5.90
   2  -1  -2  234.25    6.04
   2  -1  -2  239.49    7.11
   2  -1  -2  245.61    7.69
  -2   1   2  236.17    7.05
   2  -1  -2  250.44    8.09
   2  -1  -2  244.53    8.12
  -2   1   2  245.31    7.86
   2  -1  -1 4654.50   34.40
   2  -1  -1 4615.15   35.89
  -2   1   1 4668.92   38.29
   2  -1  -1 4653.94   38.43
  -2   1   1 4720.81   34.24
  -2   1   1 4614.16   38.00
   2  -1  -1 4600.76   38.73
   2  -1  -1 4584.80   39.31
  -2   1   1 4713.55   38.23
  -2   1   1 4629.45   35.14
  -2   1   0  117.02    4.64
  -2   1   0  111.97    4.49
   2  -1   0  106.70    4.84
  -2   1   0  104.66    4.44
  -2   1   0  100.83    4.66
   2  -1   0  114.18    4.80
   2  -1   0  114.88    4.69
   2  -1   1 7616.03   51.45
  -2   1  -1 7623.83   49.82
  -2   1  -1 7529.78   50.72
   2  -1   1 7511.21   55.17
  -2   1  -1 7481.70   55.13
  -2   1  -1 7683.25   51.23
  -2   1  -1 7578.11   51.78
  -2   1  -1 7636.41   54.79
   2  -1   1 7668.12   50.59
   2  -1   1 7608.26   50.86
   2  -1   2  344.86    7.41
  -2   1  -2  345.30    7.23
   2  -1   2  346.57    9.46
  -2   1  -2  360.81   10.22
   2  -1   2  333.14    7.63
  -2   1  -2  337.58    9.14
  -2   1  -2  345.12    9.59
  -2   1  -2  352.76    9.53
   2  -1   2  348.03    9.55
   2  -1   3  993.48   19.57
  -2   1  -3  990.97   18.71
   2  -1   3 1025.04   17.38
  -2   1  -3  942.22   18.17
  -2   1  -3  985.34   18.68
  -2   1  -3  972.59   16.55
   2  -1   3  988.83   18.77
   2  -1   4  728.21   18.36
  -2   1  -4  731.93   17.97
   2  -1   4  738.71   18.16
  -2   1  -4  687.87   17.22
  -2   1  -4  706.21   17.23
   2  -1   4  684.69   17.48
   2  -1   5   -1.74    2.44
  -2   1  -5    1.98    2.65
  -2   1  -5    1.63    2.01
  -2   1  -5   -1.29    2.35
   2  -1   5    2.76    2.39
   2  -1   5   -1.20    2.48
   2  -1   6  329.77   15.53
   2  -1   6  336.85   14.71
  -2   1  -6  330.07   15.29
  -2   1  -6  325.70   15.34
   2  -1   6  325.51   15.35
   2  -1   7   30.41    5.96
  -2   1  -7   33.72    6.18
  -2   1  -7   31.08    6.06
   2  -1   7   31.41    5.86
   2   0  -8   -4.38    3.70
  -2   0   8   -0.79    3.74
  -2   0   8   -2.97    4.07
   2   0  -8   -3.15    3.48
  -2   0   7  193.74   11.21
  -2   0   7  190.43   10.92
   2   0  -7  183.79   11.33
   2   0  -7  161.72   10.51
   2   0  -6  248.27   11.71
   2   0  -6  232.02   11.42
  -2   0   6  247.18   11.85
   2   0  -5 1629.61   25.00
   2   0  -5 1614.63   25.70
  -2   0   5 1610.85   27.66
  -2   0   5 1578.16   24.66
   2   0  -5 1539.48   26.79
   2   0  -5 1614.17   27.61
   2   0  -4 2721.49   32.06
  -2   0   4 2644.80   31.62
  -2   0   4 2653.72   33.14
  -2   0   4 2698.19   31.65
   2   0  -4 2678.09   32.80
   2   0  -4 2624.92   31.42
   2   0  -4 2698.85   33.99
   2   0  -3 2639.92   30.21
   2   0  -3 2698.77   30.10
  -2   0   3 2677.13   30.30
  -2   0   3 2669.03   30.58
  -2   0   3 2709.18   30.41
   2   0  -3 2658.35   30.57
   2   0  -3 2639.02   31.15
   2   0  -2 1746.67   22.70
  -2   0   2 1710.46   22.37
  -2   0   2 1679.24   22.62
   2   0  -2 1704.00   22.40
   2   0  -2 1692.56   22.80
   2   0  -1  588.95   12.08
  -2   0   1  570.34   11.79
  -2   0   1  574.78   11.67
  -2   0   1  560.30   11.69
   2   0  -1  560.29   11.65
  -2   0   0  372.35    9.66
  -2   0  -1   76.09    4.15
  -2   0  -1   80.66    4.56
  -2   0  -1   81.19    4.66
  -2   0  -2   91.40    5.55
  -2   0  -2   82.87    4.16
  -2   0  -2   84.21    5.19
  -2   0  -2   88.16    5.32
  -2   0  -3  820.16   15.67
   2   0   3  806.26   15.50
  -2   0  -3  822.27   17.69
   2   0   3  818.18   18.32
  -2   0  -3  862.83   18.78
  -2   0  -3  805.56   18.32
  -2   0  -4   21.28    3.09
  -2   0  -4   19.85    3.40
  -2   0  -4   20.59    3.54
  -2   0  -4   15.50    3.01
   2   0   4   20.67    3.62
  -2   0  -5 1248.98   24.92
  -2   0  -5 1213.36   26.81
   2   0   5 1254.15   27.25
  -2   0  -5 1259.55   27.50
  -2   0  -6   32.19    5.35
  -2   0  -6   24.94    4.80
   2   0   7  582.97   20.81
  -2   0  -7  586.69   21.16
   3  -3  -7  240.05   14.83
   3  -3  -6   88.39    8.34
  -3   3   6   91.52    7.88
   3  -3  -5   59.15    6.23
  -3   3   5   67.64    6.73
   3  -3  -5   61.49    6.49
   3  -3  -4  853.87   22.19
  -3   3   4  901.15   23.41
   3  -3  -4  909.62   23.00
   3  -3  -3  333.99   13.47
  -3   3   3  329.91   12.59
  -3   3   3  362.24   14.32
   3  -3  -3  329.08   13.03
  -3   3   3  331.82   13.66
   3  -3  -2  559.87   17.17
  -3   3   2  576.03   16.80
  -3   3   2  598.03   17.81
   3  -3  -2  581.88   16.08
   3  -3  -1  145.02    8.44
  -3   3   1  139.76    6.76
   3  -3  -1  133.68    8.14
  -3   3   1  125.46    7.68
  -3   3   1  146.17    8.26
   3  -3   0  162.49    9.06
  -3   3   0  145.97    7.52
   3  -3   0  151.69    8.14
  -3   3   0  148.52    8.17
  -3   3   0  140.51    7.60
   3  -3   1 1197.83   25.45
  -3   3  -1 1203.39   23.59
   3  -3   1 1165.02   22.32
  -3   3  -1 1181.01   24.06
  -3   3  -1 1192.66   22.02
   3  -3   2  269.63   12.10
   3  -3   2  256.10   11.89
  -3   3  -2  288.97   12.53
  -3   3  -2  282.36   11.98
   3  -3   3 2414.20   39.60
  -3   3  -3 2341.24   39.12
  -3   3  -3 2424.85   37.29
  -3   3  -3 2434.44   36.23
   3  -3   4   -2.70    3.11
  -3   3  -4   -1.57    3.13
  -3   3  -4    4.71    3.46
   3  -3   5  838.62   25.67
  -3   3  -5  806.38   24.40
  -3   3  -5  838.51   24.34
   3  -3   5  789.83   23.21
  -3   3  -6   13.01    4.08
   3  -3   6   13.15    4.29
  -3   2   8    5.91    3.44
   3  -2  -8   23.21    5.29
  -3   2   7   28.06    5.36
  -3   2   7   21.05    4.61
   3  -2  -7   25.10    4.94
   3  -2  -7   22.53    4.80
  -3   2   6    1.43    3.02
  -3   2   6    3.18    2.52
   3  -2  -6   -2.28    2.99
   3  -2  -6   -2.12    2.82
  -3   2   5 1194.18   25.73
  -3   2   5 1210.05   25.59
   3  -2  -5 1164.74   25.32
  -3   2   5 1082.32   25.11
   3  -2  -5 1185.73   25.93
   3  -2  -5 1157.79   26.48
  -3   2   4   25.53    3.79
   3  -2  -4   26.58    3.89
  -3   2   4   22.92    3.66
  -3   2   4   28.08    3.94
   3  -2  -4   25.13    4.20
   3  -2  -4   19.51    3.20
  -3   2   3 5173.33   50.29
  -3   2   3 4927.02   50.93
   3  -2  -3 4968.24   49.51
  -3   2   3 5104.84   48.16
   3  -2  -3 5002.89   52.79
   3  -2  -3 4997.73   52.44
   3  -2  -3 4966.07   50.99
  -3   2   3 4739.16   50.53
  -3   2   2  928.65   18.16
  -3   2   2  973.21   19.60
   3  -2  -2  992.35   19.79
  -3   2   2  915.71   18.54
   3  -2  -2  966.46   20.35
   3  -2  -2  970.24   20.24
  -3   2   2 1003.30   20.20
   3  -2  -2  946.93   18.45
  -3   2   1 1771.00   23.16
  -3   2   1 1786.69   25.88
   3  -2  -1 1697.67   23.81
   3  -2  -1 1627.23   26.23
  -3   2   1 1721.29   23.24
  -3   2   1 1652.94   25.87
   3  -2  -1 1714.90   26.65
   3  -2  -1 1740.38   26.45
   3  -2  -1 1746.86   23.13
  -3   2   1 1816.99   26.64
  -3   2   0 1190.52   20.15
   3  -2   0 1235.48   21.23
   3  -2   0 1219.06   22.42
  -3   2   0 1193.37   20.40
  -3   2   0 1189.91   21.83
   3  -2   0 1164.63   20.80
   3  -2   0 1227.65   21.06
  -3   2   0 1274.98   21.42
  -3   2  -1  356.88   10.68
  -3   2  -1  374.34   10.98
   3  -2   1  354.38   11.83
   3  -2   1  352.76   11.96
  -3   2  -1  359.37   11.65
   3  -2   1  331.54   10.72
  -3   2  -1  354.53   12.07
   3  -2   1  353.63   10.65
   3  -2   2    4.91    1.78
   3  -2   2    5.74    1.98
   3  -2   2    5.64    2.20
  -3   2  -2    5.57    2.32
   3  -2   2    4.00    2.09
  -3   2  -2    4.76    2.46
  -3   2  -2    6.42    2.39
  -3   2  -2    3.72    1.83
   3  -2   3  243.53   10.66
   3  -2   3  224.10    9.74
   3  -2   3  231.05   10.95
   3  -2   3  233.67   10.64
  -3   2  -3  239.91   11.17
  -3   2  -3  223.39   10.09
  -3   2  -3  235.25   10.23
  -3   2  -3  229.46   10.19
   3  -2   4  314.85   13.38
   3  -2   4  314.02   13.83
  -3   2  -4  292.45   13.40
  -3   2  -4  317.26   13.71
  -3   2  -4  308.32   12.88
   3  -2   4  281.33   12.64
   3  -2   5   60.14    6.79
   3  -2   5   60.18    6.96
  -3   2  -5   63.11    6.90
  -3   2  -5   71.00    7.62
  -3   2  -5   61.84    6.70
   3  -2   5   61.97    6.95
   3  -2   6   63.07    7.65
   3  -2   6   70.78    8.34
  -3   2  -6   55.38    7.08
  -3   2  -6   63.42    7.36
  -3   2  -6   76.47    9.57
   3  -2   6   64.53    7.99
   3  -1  -8   39.96    6.37
  -3   1   8   47.09    7.65
   3  -1  -8   37.40    5.93
  -3   1   8   36.68    5.96
  -3   1   7    9.61    4.04
  -3   1   7    5.91    3.59
   3  -1  -7    6.32    3.19
   3  -1  -7    8.76    3.22
  -3   1   6   53.26    5.64
  -3   1   6   53.42    6.18
   3  -1  -6   54.26    5.70
  -3   1   6   46.05    5.42
   3  -1  -6   56.45    5.85
   3  -1  -6   51.48    6.17
  -3   1   5  144.59    8.78
  -3   1   5  144.93    8.61
  -3   1   5  158.44    8.16
   3  -1  -5  156.66    8.51
  -3   1   5  160.57    9.05
   3  -1  -5  156.35    8.82
   3  -1  -5  158.49    9.39
   3  -1  -5  167.44    9.32
  -3   1   4  206.62    9.42
  -3   1   4  177.88    8.96
  -3   1   4  181.63    9.02
   3  -1  -4  184.26    9.35
   3  -1  -4  184.87    9.12
   3  -1  -4  187.53    9.30
  -3   1   3    5.21    2.00
  -3   1   3    3.67    1.85
   3  -1  -3    5.11    1.90
  -3   1   3    0.96    1.67
   3  -1  -3   11.49    2.24
  -3   1   3    5.38    1.82
   3  -1  -3    3.96    2.15
   3  -1  -3    6.59    2.01
  -3   1   2  137.62    6.61
  -3   1   2  137.49    7.05
  -3   1   2  148.13    7.25
   3  -1  -2  137.75    6.75
  -3   1   2  121.47    6.38
   3  -1  -2  150.43    7.54
   3  -1  -2  140.29    7.10
   3  -1  -2  133.88    6.63
  -3   1   1 5976.82   46.49
  -3   1   1 5999.20   52.14
   3  -1  -1 6179.18   53.34
  -3   1   1 6096.44   50.06
  -3   1   1 6142.63   52.71
  -3   1   1 6091.57   52.89
   3  -1  -1 6149.66   53.61
   3  -1  -1 6084.15   52.93
   3  -1  -1 6064.45   50.68
  -3   1   0  366.86   10.36
   3  -1   0  394.22   11.71
  -3   1   0  395.67   11.33
  -3   1   0  415.08   11.31
  -3   1   0  400.86   11.64
   3  -1   0  408.34   11.13
   3  -1   0  389.34   11.12
   3  -1   1 8071.85   63.83
  -3   1  -1 8250.48   60.29
  -3   1  -1 8217.39   61.96
   3  -1   1 8180.76   66.13
  -3   1  -1 8075.79   65.88
  -3   1  -1 8317.88   66.02
   3  -1   1 8062.98   61.18
  -3   1  -1 8105.01   62.98
  -3   1  -1 8186.45   59.15
   3  -1   2 1367.76   23.47
   3  -1   2 1333.96   23.51
  -3   1  -2 1308.31   23.76
  -3   1  -2 1343.81   23.26
  -3   1  -2 1352.43   22.11
   3  -1   3 1701.44   28.12
  -3   1  -3 1435.61   26.80
  -3   1  -3 1545.85   26.31
  -3   1  -3 1452.21   27.87
  -3   1  -3 1373.55   25.27
   3  -1   3 1599.75   27.94
   3  -1   4  305.43   13.90
  -3   1  -4  294.49   12.86
  -3   1  -4  306.95   13.87
  -3   1  -4  297.69   12.80
   3  -1   4  292.32   12.92
   3  -1   5   23.32    4.88
   3  -1   5   22.62    4.79
  -3   1  -5   22.35    4.45
  -3   1  -5   23.60    4.43
  -3   1  -5   22.30    4.32
   3  -1   5   25.92    4.59
   3  -1   6   49.11    7.06
   3  -1   6   62.76    7.24
  -3   1  -6   56.63    6.75
  -3   1  -6   63.92    7.77
  -3   1  -6   61.07    7.67
   3  -1   6   57.74    7.34
  -3   0   8   93.89    9.45
  -3   0   8   73.74    8.00
   3   0  -8   76.66    8.58
   3   0  -7  115.61   10.42
  -3   0   6   92.79    7.80
   3   0  -6   95.20    7.66
   3   0  -6   96.09    8.14
   3   0  -5   20.77    3.73
  -3   0   5   11.20    3.35
  -3   0   5   25.64    4.06
   3   0  -5   17.33    3.46
  -3   0   4   54.54    5.32
   3   0  -4   57.49    5.06
  -3   0   4   51.52    5.01
   3   0  -4   57.09    5.32
   3   0  -4   55.68    5.29
  -3   0   3   59.74    4.83
   3   0  -3   63.21    5.10
  -3   0   3   61.26    5.22
   3   0  -3   58.81    4.43
   3   0  -3   59.80    4.98
   4  -4   0   14.49    3.43
  -4   4   0   16.19    3.49
  -4   4   0   14.42    2.96
  -4   4  -1   85.16    7.04
  -4   4  -1   94.16    7.57
  -4   4  -2   -3.95    3.06
  -4   4  -2    0.85    2.57
  -4   4  -3    0.41    3.70
  -4   4  -3   -0.29    2.59
  -4   3   6  292.84   15.61
  -4   3   6  291.80   15.53
   4  -3  -6  306.53   15.74
   4  -3  -6  301.68   16.08
  -4   3   5  192.82   11.83
  -4   3   5  197.76   12.09
   4  -3  -5  181.61   12.26
   4  -3  -5  190.17   11.86
   4  -3  -5  193.54   12.07
  -4   3   5  204.74   12.95
  -4   3   4    3.96    3.57
   4  -3  -4    1.32    2.66
  -4   3   4   -5.24    3.57
   4  -3  -4    1.44    2.72
  -4   3   4    1.40    2.62
   4  -3  -4    6.52    3.35
  -4   3   3   33.34    4.92
   4  -3  -3   34.06    5.15
  -4   3   3   44.74    5.73
   4  -3  -3   28.10    4.67
  -4   3   3   36.61    4.85
  -4   3   3   40.12    5.54
   4  -3  -3   42.52    5.62
   4  -3  -3   42.47    5.43
  -4   3   2  694.80   20.40
   4  -3  -2  704.58   21.06
  -4   3   2  697.14   20.24
   4  -3  -2  684.28   20.70
  -4   3   2  701.04   20.40
   4  -3  -1   64.35    6.39
   4  -3  -1   57.98    6.05
  -4   3   1   71.00    6.54
   4  -3  -1   70.73    6.48
  -4   3   1   70.80    6.20
  -4   3   1   55.78    5.81
  -4   3   0  430.53   15.04
   4  -3   0  416.97   14.97
   4  -3   0  436.55   16.41
  -4   3   0  409.97   14.61
   4  -3   0  451.11   16.09
  -4   3   0  431.10   16.07
   4  -3   0  413.94   15.19
  -4   3   0  365.85   14.23
   4  -3   1    0.90    2.75
   4  -3   1    6.84    3.39
  -4   3  -1    5.56    3.29
  -4   3  -1    4.50    2.36
   4  -3   2    1.93    2.69
   4  -3   2    3.53    2.97
  -4   3  -2    1.49    2.91
  -4   3  -2   -0.28    2.81
   4  -3   3    8.75    4.09
   4  -3   3    3.10    3.27
  -4   3  -3    4.42    2.94
  -4   3  -3    3.52    2.68
   4  -3   4   66.81    7.50
  -4   3  -4   80.66    9.02
  -4   2   7  145.85   11.27
   4  -2  -7  147.54   11.54
  -4   2   7  130.66   10.75
   4  -2  -7  134.19   11.07
  -4   2   6   68.08    7.67
  -4   2   6   80.89    8.22
  -4   2   6   86.53    8.33
   4  -2  -6   76.24    7.88
   4  -2  -6   76.34    8.01
   4  -2  -6   70.54    7.40
  -4   2   5 1172.98   28.06
  -4   2   5 1179.23   27.72
  -4   2   5 1197.78   28.16
   4  -2  -5 1172.48   28.54
   4  -2  -5 1192.74   28.57
   4  -2  -5 1204.30   28.94
  -4   2   4  427.62   15.28
  -4   2   4  441.03   15.95
  -4   2   4  424.08   15.90
   4  -2  -4  443.65   16.47
   4  -2  -4  449.16   16.69
   4  -2  -4  411.08   15.61
  -4   2   3 1643.62   28.03
  -4   2   3 1580.03   29.39
  -4   2   3 1608.23   29.98
   4  -2  -3 1613.13   29.06
   4  -2  -3 1553.61   30.02
   4  -2  -3 1564.93   30.36
   4  -2  -3 1602.14   28.98
  -4   2   2 1499.78   27.57
  -4   2   2 1579.23   28.55
   4  -2  -2 1500.61   28.09
  -4   2   2 1483.15   27.22
   4  -2  -2 1539.57   28.59
   4  -2  -2 1447.95   28.17
  -4   2   1  146.44    8.11
  -4   2   1  147.04    8.39
   4  -2  -1  151.26    8.78
  -4   2   1  134.68    8.11
   4  -2  -1  134.74    8.00
   4  -2  -1  143.15    8.38
  -4   2   0   69.95    5.71
   4  -2   0   84.43    6.31
   4  -2   0   70.46    6.18
  -4   2   0   78.62    6.07
  -4   2   0   74.84    5.91
  -4   2   0   84.56    6.56
   4  -2   0   79.94    6.04
   4  -2   0   73.55    5.99
   4  -2   1    8.46    2.67
   4  -2   1    6.58    2.60
  -4   2  -1    7.99    2.98
  -4   2  -1   10.28    3.35
   4  -2   2  358.25   14.38
   4  -2   2  370.50   14.62
  -4   2  -2  388.52   14.86
  -4   2  -2  343.01   14.07
   4  -2   3    6.06    3.48
   4  -2   3   10.11    3.51
  -4   2  -3    7.63    3.58
  -4   2  -3    6.47    3.03
   4  -2   4  397.16   17.93
  -4   2  -4  377.01   17.22
   4  -2   5    4.58    3.54
   4  -2   5   10.89    4.86
  -4   2  -5    4.25    3.97
  -4   2  -5    0.63    4.20
   4  -2   5    9.44    4.00
   4  -1  -7   33.08    6.05
  -4   1   7   36.18    5.84
   4  -1  -7   29.96    5.53
  -4   1   7   34.21    5.37
  -4   1   6  115.96    9.45
   4  -1  -6  122.98    9.72
  -4   1   6  110.96    8.69
  -4   1   6  120.01    9.44
   4  -1  -6  106.17    8.82
   4  -1  -6  119.22    9.93
   4  -1  -5  247.15   12.80
  -4   1   5  232.07   12.24
  -4   1   5  233.85   12.03
  -4   1   5  230.03   12.01
   4  -1  -5  244.58   12.30
   4  -1  -5  242.06   12.86
   4  -1  -4 1879.88   34.35
  -4   1   4 1915.99   32.84
   4  -1  -4 1870.24   34.10
  -4   1   4 1931.13   34.05
   4  -1  -4 1878.76   34.11
  -4   1   3 1798.25   29.41
  -4   1   3 1718.72   30.68
   4  -1  -3 1686.16   29.09
  -4   1   3 1669.86   29.62
   4  -1  -3 1652.20   30.97
  -4   1   3 1673.43   30.29
   4  -1  -3 1706.58   30.80
   4  -1  -3 1696.41   30.99
   4  -1  -2 1376.86   26.86
  -4   1   2 1388.87   26.51
  -4   1   2 1369.53   26.30
   4  -1  -2 1417.25   26.59
  -4   1   2 1337.58   26.32
   4  -1  -2 1364.20   26.79
   4  -1  -1 2126.93   33.38
  -4   1   1 2219.79   32.73
  -4   1   1 2190.49   33.05
  -4   1   1 2129.93   33.46
   4  -1  -1 2081.16   32.60
   4  -1   0   46.05    4.65
  -4   1   0   60.17    5.29
   4  -1   0   54.35    5.42
  -4   1   0   45.53    4.85
  -4   1   0   52.05    5.33
   4  -1   0   59.98    5.14
   4  -1   1  397.13   14.32
  -4   1  -1  392.61   14.38
   4  -1   2  531.57   16.99
  -4   1  -2  507.70   16.96
  -4   1  -2  565.70   17.90
   4  -1   3   12.11    3.32
  -4   1  -3   18.37    3.90
   4  -1   4   71.46    7.29
  -4   1  -4   58.80    6.37
  -4   1  -4   76.13    7.22
   4  -1   5   16.04    4.47
   4  -1   5   17.06    4.51
  -4   1  -5   19.73    4.72
  -5   4   3  101.92    9.51
  -5   4   3  100.21    9.41
   5  -4  -3  114.88   10.42
  -5   4   2   -0.90    2.79
   5  -4  -2   -0.79    3.29
  -5   4   2    0.51    3.36
  -5   4   1  213.64   12.23
  -5   4   1  222.41   12.94
   5  -4  -1  251.92   14.50
  -5   4   0    4.18    3.29
  -5   4  -1   13.71    3.88
  -5   4  -1   21.53    5.12
  -5   4  -2  114.46    9.69
  -5   4  -2  129.84   11.05
  -5   3   5    6.18    4.36
  -5   3   5    8.83    4.13
  -5   3   5    1.72    3.76
   5  -3  -5    2.14    2.98
   5  -3  -5   -0.58    4.59
   5  -3  -5    4.46    4.13
  -5   3   4   11.87    4.83
   5  -3  -4   15.50    4.35
  -5   3   4   24.21    5.28
   5  -3  -4   24.71    5.69
   5  -3  -3   22.87    4.94
  -5   3   3    8.82    3.90
   5  -3  -3   16.97    4.67
  -5   3   3   10.10    4.27
  -5   3   3   11.96    3.43
   5  -3  -3   18.88    4.72
   5  -3  -2    7.71    3.24
  -5   3   2    4.78    3.14
   5  -3  -2    3.78    3.09
  -5   3   2    2.38    2.84
  -5   3   2    0.77    2.51
   5  -3  -2    4.24    2.93
  -5   3   1    9.52    3.85
   5  -3  -1    5.42    3.32
   5  -3  -1   -1.28    3.29
  -5   3   1    4.34    3.68
  -5   3   1    4.81    3.26
   5  -3   0    7.07    3.37
  -5   3   0    3.10    2.73
   5  -3   1  101.80    9.07
   5  -3   1   88.68    8.69
  -5   3  -1   97.01    8.63
  -5   3  -1  107.80    9.46
   5  -3   2   27.71    5.62
   5  -3   2   20.70    5.00
  -5   3  -2   18.72    4.68
  -5   3  -2   17.94    4.90
   5  -3   3  159.77   12.78
  -5   3  -3  156.25   12.13
   5  -2  -6  101.48   10.02
  -5   2   6  108.92   10.13
  -5   2   6  130.53   11.11
   5  -2  -6  129.15   11.02
   5  -2  -6  118.27   10.98
  -5   2   6  116.70   10.47
  -5   2   5  424.47   17.81
  -5   2   5  374.63   17.33
   5  -2  -5  382.93   18.00
  -5   2   5  381.11   17.42
   5  -2  -5  395.72   18.38
   5  -2  -5  391.22   18.50
  -5   2   4   -0.38    2.60
  -5   2   4    2.76    3.45
   5  -2  -4    4.64    2.99
   5  -2  -4    1.02    2.76
   5  -2  -3   13.24    3.35
  -5   2   3    3.26    2.99
   5  -2  -3   10.44    3.95
  -5   2   3   12.87    3.29
  -5   2   3    8.86    3.50
   5  -2  -3   15.58    4.15
   5  -2  -2   57.39    6.37
  -5   2   2   55.86    6.39
  -5   2   2   58.18    6.48
  -5   2   2   60.29    6.58
   5  -2  -2   56.65    6.34
   5  -2  -2   59.30    6.60
   5  -2  -1  267.47   13.45
  -5   2   1  266.39   12.60
   5  -2  -1  254.93   13.03
  -5   2   1  247.43   12.82
   5  -2  -1  241.85   12.19
  -5   2   1  268.37   13.26
   5  -2   0  112.79    8.48
   5  -2   0  117.52    9.06
  -5   2   0  107.76    8.16
  -5   2   0  120.91    9.26
   5  -2   1   77.50    7.25
   5  -2   1   77.12    7.43
  -5   2  -1   79.26    7.60
  -5   2  -1   71.05    7.63
   5  -2   2  181.75   12.03
   5  -2   2  170.52   11.57
  -5   2  -2  179.42   11.87
  -5   2  -2  179.15   12.19
   5  -2   3   11.65    4.13
  -5   2  -3    8.80    4.51
  -5   1   6  215.09   13.32
  -5   1   6  206.12   13.30
   5  -1  -6  229.88   14.43
  -5   1   5  233.79   12.90
  -5   1   5  206.61   12.75
   5  -1  -5  218.85   13.45
   5  -1  -5  238.18   14.15
  -5   1   4  374.49   14.82
   5  -1  -4  376.58   16.83
  -5   1   4  336.66   15.56
   5  -1  -4  351.48   15.01
   5  -1  -4  359.28   16.36
  -5   1   3 1137.94   27.19
   5  -1  -3 1133.68   28.31
   5  -1  -3 1198.87   27.60
   5  -1  -3 1165.40   28.51
  -5   1   2   53.84    6.11
   5  -1  -2   52.26    5.95
   5  -1  -2   56.33    6.46
  -5   1   1  693.25   20.85
   5  -1  -1  763.04   23.06
  -5   1   1  705.35   22.11
   5  -1  -1  773.91   23.24
   6  -3  -2  544.83   22.37
  -6   3   2  588.50   24.08
  -6   2   3   42.24    6.52
   6  -2  -3   49.69    7.36
   6  -2  -3   44.17    6.46
  -6   2   3   41.95    6.82
  -6   2   3   41.80    6.57
   6  -2  -3   41.45    6.55
  -6   2   2   24.25    5.73
   6  -2  -2   26.08    5.43
   6  -2  -2   33.71    6.08
  -6   2   2   21.66    5.26
   6  -2  -2   24.73    5.35
   6  -2  -1    0.51    3.73
  -6   2   1    3.53    3.29
   0   0   0    0.00    0.00


TITL diethyl_ether_phase_delta_2_80GPa in P-1
REM P-1 (#2 in standard setting)
CELL 0.71073   5.119565   5.665941   7.299867  97.2750 102.7284  96.7472
ZERR    2.00   0.000445   0.001021   0.000384   0.0081   0.0058   0.0104
LATT  1
SFAC C H O
UNIT 8.00 20.00 2.00
REM  CrysAlisPro recorded range (K): Min=297.9; max=297.9; aver:297.9
TEMP 25
TREF
HKLF 4
END
_computing_structure_solution     'SHELXT 2018/2 (Sheldrick, 2018)'
;
_shelx_hkl_checksum              32322
_olex2_submission_special_instructions 'No special instructions were received'
loop_
_space_group_symop_operation_xyz
'x, y, z'
'-x, -y, -z'
loop_
_atom_site_label
_atom_site_type_symbol
_atom_site_fract_x
_atom_site_fract_y
_atom_site_fract_z
_atom_site_U_iso_or_equiv
_atom_site_adp_type
_atom_site_occupancy
_atom_site_site_symmetry_order
_atom_site_calc_flag
_atom_site_refinement_flags_posn
_atom_site_refinement_flags_adp
_atom_site_refinement_flags_occupancy
_atom_site_disorder_assembly
_atom_site_disorder_group
O1 O 0.5029(7) 0.2073(11) 0.3190(3) 0.042(4) Uani 1 1 d . . . . .
C1 C 0.5498(12) 0.4352(18) 0.2653(4) 0.043(6) Uani 1 1 d . . . . .
H11 H 0.628013 0.422259 0.155505 0.052 Uiso 1 1 calc R U . . .
H12 H 0.676772 0.543641 0.368504 0.052 Uiso 1 1 calc R U . . .
C2 C 0.2856(8) 0.5336(14) 0.2175(4) 0.041(5) Uani 1 1 d . . . . .
H21 H 0.167648 0.435123 0.106701 0.061 Uiso 1 1 calc R U . . .
H23 H 0.319899 0.695440 0.192897 0.061 Uiso 1 1 calc R U . . .
H22 H 0.201188 0.532848 0.322611 0.061 Uiso 1 1 calc R U . . .
C3 C 0.7439(8) 0.0987(13) 0.3593(3) 0.045(5) Uani 1 1 d . . . . .
H31 H 0.717200 -0.027165 0.434745 0.054 Uiso 1 1 calc R U . . .
H32 H 0.892291 0.218957 0.434044 0.054 Uiso 1 1 calc R U . . .
C4 C 0.8197(10) -0.0082(16) 0.1798(3) 0.052(5) Uani 1 1 d . . . . .
H41 H 0.679133 -0.135463 0.109703 0.079 Uiso 1 1 calc R U . . .
H43 H 0.986759 -0.071269 0.213696 0.079 Uiso 1 1 calc R U . . .
H42 H 0.840957 0.114565 0.102610 0.079 Uiso 1 1 calc R U . . .
loop_
_atom_site_aniso_label
_atom_site_aniso_U_11
_atom_site_aniso_U_22
_atom_site_aniso_U_33
_atom_site_aniso_U_23
_atom_site_aniso_U_13
_atom_site_aniso_U_12
O1 0.031(3) 0.071(11) 0.0349(11) 0.017(2) 0.0132(13) 0.026(6)
C1 0.036(4) 0.072(17) 0.0281(14) 0.012(3) 0.0093(17) 0.026(9)
C2 0.036(4) 0.060(15) 0.0327(12) 0.012(2) 0.0094(14) 0.024(8)
C3 0.038(4) 0.074(13) 0.0291(12) 0.009(2) 0.0065(14) 0.036(7)
C4 0.044(4) 0.086(15) 0.0344(13) 0.008(3) 0.0125(16) 0.036(8)
loop_
_atom_type_symbol
_atom_type_description
_atom_type_scat_dispersion_real
_atom_type_scat_dispersion_imag
_atom_type_scat_source
C C 0.0033 0.0016 'International Tables Vol C Tables 4.2.6.8 and 6.1.1.4'
H H 0.0000 0.0000 'International Tables Vol C Tables 4.2.6.8 and 6.1.1.4'
O O 0.0106 0.0060 'International Tables Vol C Tables 4.2.6.8 and 6.1.1.4'
loop_
_geom_angle_atom_site_label_1
_geom_angle_atom_site_label_2
_geom_angle_atom_site_label_3
_geom_angle
_geom_angle_site_symmetry_1
_geom_angle_site_symmetry_3
_geom_angle_publ_flag
C1 O1 C3 112.5(5) . . ?
O1 C1 H11 109.8 . . ?
O1 C1 H12 109.8 . . ?
O1 C1 C2 109.5(7) . . ?
H11 C1 H12 108.2 . . ?
C2 C1 H11 109.8 . . ?
C2 C1 H12 109.8 . . ?
C1 C2 H21 109.5 . . ?
C1 C2 H23 109.5 . . ?
C1 C2 H22 109.5 . . ?
H21 C2 H23 109.5 . . ?
H21 C2 H22 109.5 . . ?
H23 C2 H22 109.5 . . ?
O1 C3 H31 109.1 . . ?
O1 C3 H32 109.1 . . ?
O1 C3 C4 112.51(18) . . ?
H31 C3 H32 107.8 . . ?
C4 C3 H31 109.1 . . ?
C4 C3 H32 109.1 . . ?
C3 C4 H41 109.5 . . ?
C3 C4 H43 109.5 . . ?
C3 C4 H42 109.5 . . ?
H41 C4 H43 109.5 . . ?
H41 C4 H42 109.5 . . ?
H43 C4 H42 109.5 . . ?
loop_
_geom_bond_atom_site_label_1
_geom_bond_atom_site_label_2
_geom_bond_distance
_geom_bond_site_symmetry_2
_geom_bond_publ_flag
O1 C1 1.405(13) . ?
O1 C3 1.432(3) . ?
C1 H11 0.9700 . ?
C1 H12 0.9700 . ?
C1 C2 1.510(3) . ?
C2 H21 0.9600 . ?
C2 H23 0.9600 . ?
C2 H22 0.9600 . ?
C3 H31 0.9700 . ?
C3 H32 0.9700 . ?
C3 C4 1.521(3) . ?
C4 H41 0.9600 . ?
C4 H43 0.9600 . ?
C4 H42 0.9600 . ?
loop_
_geom_torsion_atom_site_label_1
_geom_torsion_atom_site_label_2
_geom_torsion_atom_site_label_3
_geom_torsion_atom_site_label_4
_geom_torsion
_geom_torsion_site_symmetry_1
_geom_torsion_site_symmetry_2
_geom_torsion_site_symmetry_3
_geom_torsion_site_symmetry_4
_geom_torsion_publ_flag
C1 O1 C3 C4 -77.9(7) . . . . ?
C3 O1 C1 C2 177.7(2) . . . . ?
