#------------------------------------------------------------------------------
#$Date: 2024-02-05 14:09:55 +0200 (Mon, 05 Feb 2024) $
#$Revision: 289697 $
#$URL: file:///home/coder/svn-repositories/cod/cif/1/57/04/1570445.cif $
#------------------------------------------------------------------------------
#
# This file is available in the Crystallography Open Database (COD),
# http://www.crystallography.net/
#
# All data on this site have been placed in the public domain by the
# contributors.
#
data_1570445
loop_
_publ_author_name
'Sacharczuk, Natalia'
'Olejniczak, Anna'
'Bujak, Maciej'
'Dziubek, Kamil Filip'
'Katrusiak, Andrzej'
'Podsiad&#x142;o, Marcin'
_publ_section_title
;
 Conformation-aggregation interplay in the simplest aliphatic ethers
 probed under high pressure.
;
_journal_issue                   'Pt 1'
_journal_name_full               IUCrJ
_journal_page_first              57
_journal_page_last               61
_journal_paper_doi               10.1107/S2052252523009995
_journal_volume                  11
_journal_year                    2024
_chemical_formula_moiety         'C4 H10 O'
_chemical_formula_sum            'C4 H10 O'
_chemical_formula_weight         74.12
_chemical_name_systematic        'diethyl ether'
_space_group_crystal_system      triclinic
_space_group_IT_number           2
_space_group_name_Hall           '-P 1'
_space_group_name_H-M_alt        'P -1'
_atom_sites_solution_hydrogens   geom
_atom_sites_solution_primary     dual
_audit_creation_method
;
Olex2 1.5
(compiled 2022.04.07 svn.rca3783a0 for OlexSys, GUI svn.r6498)
;
_cell_angle_alpha                97.382(13)
_cell_angle_beta                 102.749(10)
_cell_angle_gamma                97.002(11)
_cell_formula_units_Z            2
_cell_length_a                   5.0809(5)
_cell_length_b                   5.6329(10)
_cell_length_c                   7.2451(10)
_cell_measurement_reflns_used    828
_cell_measurement_temperature    295(2)
_cell_measurement_theta_max      26.0310
_cell_measurement_theta_min      5.0920
_cell_volume                     198.13(5)
_computing_cell_refinement       'CrysAlisPro 1.171.42.49 (Rigaku OD, 2022)'
_computing_data_collection       'CrysAlisPro 1.171.42.49 (Rigaku OD, 2022)'
_computing_data_reduction        'CrysAlisPro 1.171.42.49 (Rigaku OD, 2022)'
_computing_molecular_graphics    'Olex2 1.5 (Dolomanov et al., 2009)'
_computing_publication_material  'Olex2 1.5 (Dolomanov et al., 2009)'
_computing_structure_refinement  'SHELXL 2018/3 (Sheldrick, 2015)'
_computing_structure_solution    'SHELXT 2018/2 (Sheldrick, 2018)'
_diffrn_ambient_environment      'diamond-anvil cell'
_diffrn_ambient_pressure         3450000
_diffrn_ambient_temperature      295(2)
_diffrn_measured_fraction_theta_full 0.321
_diffrn_measured_fraction_theta_max 0.311
_diffrn_measurement_device_type  'KUMA KM4-CCD, Eos'
_diffrn_measurement_method       '\f- and \w-scans'
_diffrn_radiation_type           MoK\a
_diffrn_radiation_wavelength     0.71073
_diffrn_reflns_av_R_equivalents  0.0183
_diffrn_reflns_av_unetI/netI     0.0139
_diffrn_reflns_Laue_measured_fraction_full 0.321
_diffrn_reflns_Laue_measured_fraction_max 0.311
_diffrn_reflns_limit_h_max       6
_diffrn_reflns_limit_h_min       -6
_diffrn_reflns_limit_k_max       4
_diffrn_reflns_limit_k_min       -5
_diffrn_reflns_limit_l_max       8
_diffrn_reflns_limit_l_min       -8
_diffrn_reflns_number            1179
_diffrn_reflns_point_group_measured_fraction_full 0.321
_diffrn_reflns_point_group_measured_fraction_max 0.311
_diffrn_reflns_theta_full        25.242
_diffrn_reflns_theta_max         26.126
_diffrn_reflns_theta_min         5.120
_exptl_absorpt_coefficient_mu    0.086
_exptl_absorpt_correction_T_max  1.00000
_exptl_absorpt_correction_T_min  0.03637
_exptl_absorpt_correction_type   multi-scan
_exptl_absorpt_process_details
;
CrysAlisPro 1.171.42.49 (Rigaku Oxford Diffraction, 2022)
Empirical absorption correction using spherical harmonics,
implemented in SCALE3 ABSPACK scaling algorithm.
;
_exptl_crystal_colour            colourless
_exptl_crystal_density_diffrn    1.242
_exptl_crystal_description       disc
_exptl_crystal_F_000             84
_exptl_crystal_size_max          0.37
_exptl_crystal_size_mid          0.37
_exptl_crystal_size_min          0.22
_refine_diff_density_max         0.302
_refine_diff_density_min         -0.288
_refine_diff_density_rms         0.065
_refine_ls_extinction_method     none
_refine_ls_goodness_of_fit_ref   1.788
_refine_ls_hydrogen_treatment    constr
_refine_ls_matrix_type           full
_refine_ls_number_parameters     23
_refine_ls_number_reflns         243
_refine_ls_number_restraints     0
_refine_ls_restrained_S_all      1.788
_refine_ls_R_factor_all          0.1071
_refine_ls_R_factor_gt           0.1011
_refine_ls_shift/su_max          0.000
_refine_ls_shift/su_mean         0.000
_refine_ls_structure_factor_coef Fsqd
_refine_ls_weighting_details
'w=1/[\s^2^(Fo^2^)+(0.2000P)^2^] where P=(Fo^2^+2Fc^2^)/3'
_refine_ls_weighting_scheme      calc
_refine_ls_wR_factor_gt          0.3380
_refine_ls_wR_factor_ref         0.3608
_reflns_Friedel_coverage         0.000
_reflns_number_gt                218
_reflns_number_total             243
_reflns_threshold_expression     'I > 2\s(I)'
_cod_data_source_file            lq5055.cif
_cod_data_source_block           diethyl_ether_phase_delta_3_45GPa
_cod_depositor_comments
'Adding full bibliography for 1570433--1570452.cif.'
_cod_database_code               1570445
_shelx_shelxl_version_number     2018/3
_shelx_space_group_comment
;
The symmetry employed for this shelxl refinement is uniquely defined
by the following loop, which should always be used as a source of
symmetry information in preference to the above space-group names.
They are only intended as comments.
;
_exptl_absorpt_special_details
;
Data were collected at room temperature (295(2) K) and pressure of 3.45(2) GPa
(3450000 kPa).
;
_olex2_refinement_description
;
1. Fixed Uiso
 At 1.2 times of:
  All C(H,H) groups
 At 1.5 times of:
  All C(H,H,H) groups
2.a Secondary CH2 refined with riding coordinates:
 C1(H11,H12), C3(H31,H32)
2.b Idealised Me refined as rotating group:
 C2(H21,H23,H22), C4(H41,H43,H42)
;
_shelx_res_file
;
TITL 2ede_a.res in P-1
    2ede.res
    created by SHELXL-2018/3 at 13:17:18 on 22-Dec-2022
REM Old TITL 2ede in P-1
REM SHELXT solution in P-1: R1 0.281, Rweak 0.055, Alpha 0.073
REM <I/s> 0.000 for 0 systematic absences, Orientation as input
REM Formula found by SHELXT: C4 O
CELL 0.71073 5.0809 5.6329 7.2451 97.382 102.749 97.002
ZERR 2 0.0005 0.001 0.001 0.013 0.01 0.011
LATT 1
SFAC C H O
UNIT 8 20 2

L.S. 50
PLAN  10
CONF
BOND
list 4
fmap 2 53
MORE -1
BOND $H
ACTA
REM <olex2.extras>
REM <HklSrc "%.\\2ede.hkl">
REM </olex2.extras>

WGHT    0.200000
FVAR       4.97118
O1    3    0.503733    0.211431    0.317543    11.00000    0.02839
C1    1    0.552523    0.441915    0.264348    11.00000    0.03068
AFIX  23
H11   2    0.631428    0.429983    0.153823    11.00000   -1.20000
H12   2    0.679908    0.551643    0.368952    11.00000   -1.20000
AFIX   0
C2    1    0.284639    0.536693    0.216639    11.00000    0.03030
AFIX 137
H21   2    0.173772    0.446966    0.097511    11.00000   -1.50000
H23   2    0.318515    0.704999    0.205312    11.00000   -1.50000
H22   2    0.191093    0.518451    0.316722    11.00000   -1.50000
AFIX   0
C3    1    0.742008    0.097444    0.359283    11.00000    0.02790
AFIX  23
H31   2    0.709314   -0.029712    0.433682    11.00000   -1.20000
H32   2    0.893508    0.215939    0.436765    11.00000   -1.20000
AFIX   0
C4    1    0.820005   -0.011400    0.178323    11.00000    0.03109
AFIX 137
H41   2    0.679282   -0.141256    0.108049    11.00000   -1.50000
H43   2    0.989265   -0.072654    0.213373    11.00000   -1.50000
H42   2    0.840480    0.111312    0.099832    11.00000   -1.50000
AFIX   0
HKLF 4




REM  2ede_a.res in P-1
REM wR2 = 0.3608, GooF = S = 1.788, Restrained GooF = 1.788 for all data
REM R1 = 0.1011 for 218 Fo > 4sig(Fo) and 0.1071 for all 243 data
REM 23 parameters refined using 0 restraints

END

WGHT      0.2000      0.0000

REM Highest difference peak  0.302,  deepest hole -0.288,  1-sigma level  0.065
Q1    1   0.5135  0.2864  0.3424  11.00000  0.05    0.30
Q2    1   0.5831  0.0444  0.5848  11.00000  0.05    0.25
Q3    1   0.5711  0.4418  0.2243  11.00000  0.05    0.23
Q4    1   0.3202  0.6606  0.1208  11.00000  0.05    0.22
Q5    1   0.2016  0.3281  0.2994  11.00000  0.05    0.22
Q6    1   0.6541 -0.0983  0.4568  11.00000  0.05    0.21
Q7    1   0.8418  0.3054  0.2814  11.00000  0.05    0.20
Q8    1   0.8009  0.1230  0.4460  11.00000  0.05    0.19
Q9    1   0.4645  0.1400  0.2446  11.00000  0.05    0.19
Q10   1   0.8705  0.0864 -0.0407  11.00000  0.05    0.19
;
_shelx_res_checksum              28475
_shelx_hkl_file
;
   0   0  -3  566.30   16.00
   0   0  -3  509.65   14.35
   0   0  -3  513.15   14.88
   0   0   3  525.26   15.06
   0   0  -4   17.65    3.33
   0   0  -4   11.16    2.24
   0   0  -4   19.83    3.21
   0   0  -5    1.98    0.77
   0   0  -5    1.18    0.52
   0   0  -5    0.32    0.89
   0  -1  -3   68.05    5.82
   0  -1  -3   66.39    4.63
   0   1   3   68.03    5.63
   0   1   3   65.62    5.65
   0   1   3   68.46    4.78
   0   1   3   68.81    6.20
   0  -1  -3   76.85    6.45
   0  -1  -3   77.79    5.95
   0  -1  -3   66.89    6.06
   0  -1  -4 7102.75   64.42
   0  -1  -4 7062.54   67.09
   0   1   4 7067.28   64.57
   0   1   4 7251.45   65.84
   0   1   4 7142.04   68.75
   0  -1  -4 7326.03   63.96
   0  -1  -4 7159.31   64.17
   0  -1  -5  434.19   17.94
   0   1   5  411.28   19.36
   0   1   5  424.60   19.63
   0  -1  -5  399.44   18.29
   0  -1  -5  438.67   18.91
   0   1   5  405.89   17.62
   0  -1  -5  409.82   17.79
   0  -1  -6 1365.14   35.54
   0  -1  -6 1413.36   38.08
   0   1   6 1394.09   38.27
   0  -1  -7   69.89    8.11
   0  -1  -7   71.44    8.69
   0  -2  -2   47.71    5.39
   0  -2  -2   42.76    5.00
   0  -2  -2   40.13    4.24
   0   2   2   43.77    5.11
   0  -2  -2   50.61    5.32
   0  -2  -3 3287.08   45.20
   0   2   3 3211.01   46.56
   0  -2  -3 3329.40   44.83
   0   2   3 3344.52   42.20
   0  -2  -3 3277.75   38.27
   0  -2  -3 3213.44   46.47
   0  -2  -3 3245.45   45.50
   0   2   4    0.94    1.26
   0  -2  -4   -0.50    1.55
   0  -2  -4    0.62    0.57
   0   2   4   -0.53    0.54
   0   2   4   -1.76    1.61
   0  -2  -4   -0.82    0.92
   0  -2  -5 2306.04   47.34
   0   2   5 2372.74   47.44
   0  -2  -5 2345.54   44.76
   0   2   5 2393.38   45.94
   0   2   5 2445.92   45.69
   0  -2  -5 2318.86   43.34
   0   2   6  435.21   21.77
   0   2   6  403.79   21.97
   0  -2  -6  414.53   22.10
   0  -2  -6  418.60   21.32
   0   2   6  403.48   20.95
   0  -2  -6  376.20   20.17
   0  -2  -7  216.36   16.78
   0   2   7  238.75   18.17
   0   2   7  223.11   18.13
   0  -2  -7  232.21   18.59
   0  -3  -3  658.80   25.57
   0  -3  -4  141.87   12.67
   0  -3  -4  143.34   12.99
   0   3   4  128.82   11.17
   0  -3  -4  152.41   12.57
   0  -3  -5  109.90   11.40
   0   3   5  117.72   12.21
   0  -3  -5  119.46   12.21
   0  -3  -5  109.69   10.86
   0   3   5  120.61   12.00
   0   3   5  116.16   11.45
   0  -3  -6   11.98    4.27
   0  -3  -6    9.93    3.83
   0   3   6   11.23    2.50
   0   3   6   15.62    4.74
   0   3   6    6.94    3.83
   0  -3  -6   14.16    4.80
   0   3   7  342.07   23.96
   0  -3  -7  309.32   23.40
   0   4   6   44.31    6.60
   0   4   6   36.25    5.64
   0  -4  -6   43.10    8.76
   1  -4  -6  114.95   14.01
  -1   4   6  126.32   13.36
  -1   4   6  116.92   12.20
   1  -4  -6   87.78   13.19
   1  -4  -6  114.35   13.30
  -1   4   5   64.85    8.15
   1  -4  -5   61.82    9.13
   1  -4  -5   65.81    9.84
   1  -4  -4   -4.14    3.19
   1  -3  -7   36.02    7.37
  -1   3   7   30.61    5.92
  -1   3   7   31.29    6.20
   1  -3  -7   39.00    7.72
  -1   3   7   41.69    8.32
   1  -3  -7   32.32    7.30
  -1   3   6    2.69    0.67
   1  -3  -6    1.81    1.70
  -1   3   6    5.20    2.59
   1  -3  -6   -0.66    1.19
   1  -3  -6    2.63    1.68
  -1   3   6   -1.52    2.25
  -1   3   5    0.50    1.97
  -1   3   5   -1.35    1.93
   1  -3  -5    1.42    0.47
   1  -3  -5    3.15    2.22
   1  -3  -5    0.59    1.38
   1  -3  -4  234.21   13.86
   1  -3  -4  227.73   14.46
   1  -3  -4  254.56   15.50
  -1   3   4  248.77   15.38
  -1   3   4  216.82   13.52
   1  -3  -4  234.63   14.98
  -1   3   4  233.31   14.24
   1  -3  -3   22.54    4.30
   1  -3  -3   13.59    3.47
   1  -3  -3   19.01    4.06
  -1   3   3   22.82    4.49
  -1   3   3   16.47    3.50
   1  -3  -3   17.65    3.86
   1  -3  -2  211.35   13.09
   1  -3  -2  211.05   13.23
   1  -2  -8  212.98   15.36
   1  -2  -8  259.83   18.34
  -1   2   8  247.70   16.47
   1  -2  -7   62.89    9.19
  -1   2   7   71.37    9.10
  -1   2   7   54.62    8.24
   1  -2  -7   63.29    9.18
   1  -2  -7   63.01    9.37
   1  -2  -6  362.67   20.25
   1  -2  -6  380.11   20.76
  -1   2   6  349.22   19.67
  -1   2   6  356.26   19.59
   1  -2  -6  362.86   20.28
  -1   2   6  354.18   19.95
  -1   2   5   29.86    5.07
   1  -2  -5   26.73    5.02
   1  -2  -5   28.10    4.93
   1  -2  -5   28.28    4.91
  -1   2   5   23.56    4.48
  -1   2   4  278.26   13.84
  -1   2   4  281.62   13.32
   1  -2  -4  272.50   14.13
  -1   2   4  278.80   14.08
   1  -2  -4  272.28   12.47
  -1   2   4  260.34   13.29
   1  -2  -4  263.25   13.17
   1  -2  -4  275.16   13.87
  -1   2   3  250.57   11.79
   1  -2  -3  266.75   11.68
   1  -2  -3  274.93   12.90
   1  -2  -3  279.51   13.09
   1  -2  -3  268.26   11.88
  -1   2   3  259.04   11.32
  -1   2   3  272.96   12.16
  -1   2   2 1913.69   31.24
   1  -2  -2 1914.88   31.07
  -1   2   2 1966.35   31.52
   1  -2  -2 1939.81   31.31
   1  -2  -2 1973.93   29.22
   1  -2  -2 1981.34   31.39
   1  -2  -2 1954.02   25.63
   1  -2  -1  125.09    7.50
   1  -2  -1  119.25    7.09
  -1   2   1  115.24    7.41
   1  -2  -1  116.62    7.59
  -1   2   1  107.25    6.65
   1  -2  -1  116.08    7.30
   1  -1  -6  921.31   27.77
   1  -1  -6  967.53   28.54
   1  -1  -5   73.32    7.51
   1  -1  -5   81.87    8.81
   1  -1  -5   79.48    8.27
  -1   1   5   79.99    8.12
  -1   1   5   61.34    6.76
   1  -1  -4 7197.25   69.94
  -1   1   4 7151.78   67.18
   1  -1  -4 7272.49   69.26
   1  -1  -4 7103.15   81.97
   1  -1  -4 7307.39   66.75
  -1   1   4 7313.39   69.74
   1  -1  -4 7295.19   55.42
  -1   1   3 3413.38   30.75
   1  -1  -3 3494.15   40.68
   1  -1  -3 3458.76   38.81
   1  -1  -3 3470.38   29.88
  -1   1   3 3521.15   41.73
   1  -1  -3 3407.64   38.01
  -1   1   3 3512.90   39.51
   1  -1  -3 3487.49   40.87
  -1   1   2 7344.79   50.79
   1  -1  -2 7399.48   50.35
   1  -1  -2 7393.18   49.62
   1  -1  -2 7418.27   43.77
   1  -1  -2 7327.93   49.15
   1  -1  -1    0.25    0.25
   1  -1  -1    0.08    0.21
   1  -1  -1    0.96    0.48
  -1   1   1   -0.55    0.45
   1  -1  -1    0.40    0.14
  -1   1   0  130.95    5.67
   1  -1   0  133.25    5.44
   1  -1   0  131.93    5.89
  -1   1   0  133.31    6.04
  -1   1  -1 3808.27   36.20
   1  -1   1 3857.68   38.72
   1  -1   1 3877.56   38.47
  -1   1  -1 3803.25   37.66
  -1   1  -2  777.94   21.52
  -1   1  -3   31.97    5.18
   1   0   1 6622.58   43.48
   1   0   1 6677.13   42.84
   1   0   1 6624.93   42.55
  -1   0  -2 1263.74   22.61
   1   0   2 1258.48   20.56
   1   0   2 1273.78   23.48
  -1   0  -2 1263.52   20.81
   1   0   2 1234.76   21.38
  -1   0  -2 1230.76   21.16
  -1   0  -2 1274.22   22.75
   1   0   2 1186.23   21.52
  -1   0  -3  484.37   15.45
  -1   0  -3  490.50   16.44
  -1   0  -3  484.80   12.60
  -1   0  -3  496.56   15.98
   1   0   3  461.82   16.52
   1   0   3  502.17   15.81
   1   0   3  473.10   15.66
  -1   0  -3  491.43   14.90
   1   0   3  505.30   15.85
   1   0   4   99.93    8.84
  -1   0  -4   97.94    6.91
  -1   0  -4   83.63    7.61
   1   0   4  107.25    8.18
  -1   0  -4   85.19    7.82
  -1   0  -4   88.49    7.23
   1   0   4  107.85    8.73
  -1   0  -5    1.12    1.29
   1   0   5    0.17    0.31
   1   0   5    1.80    1.33
  -1   0  -5    0.69    0.68
  -1   0  -6    0.54    1.13
  -1   0  -6    0.05    0.66
  -1  -1  -2 4863.09   39.46
  -1  -1  -2 4906.94   43.85
   1   1   2 5042.16   47.41
  -1  -1  -2 4683.17   44.56
   1   1   2 4846.45   43.73
  -1  -1  -2 4822.34   43.33
   1   1   2 4679.47   49.37
  -1  -1  -2 4805.07   48.56
  -1  -1  -2 4821.12   48.78
   1   1   2 4796.33   41.36
   1   1   3 1070.65   22.15
  -1  -1  -3 1053.84   25.69
  -1  -1  -3 1103.20   22.44
   1   1   3 1047.48   25.13
  -1  -1  -3 1064.40   22.28
  -1  -1  -3 1051.55   22.10
   1   1   3 1034.21   21.90
  -1  -1  -3 1046.99   25.08
  -1  -1  -3 1017.09   20.59
   1   1   3  990.78   21.83
  -1  -1  -4  388.87   15.10
   1   1   4  374.74   16.34
   1   1   4  406.07   15.00
  -1  -1  -4  394.37   17.05
   1   1   4  399.60   14.87
   1   1   4  362.15   16.82
  -1  -1  -4  383.76   16.83
  -1  -1  -4  390.51   14.79
   1   1   5  111.50   11.40
   1   1   5   89.45    9.80
  -1  -1  -5  130.10   11.63
   1   1   6   40.02    6.99
  -1  -1  -6   37.69    6.46
   1   1   6   39.23    7.01
  -1  -1  -6   40.43    6.71
   1   1   7  112.79   12.05
  -1  -1  -7  105.71   12.08
  -1  -1  -7  110.37   11.81
  -1  -2  -2   17.85    3.27
  -1  -2  -2   44.87    6.74
  -1  -2  -3 2286.86   39.32
   1   2   3 2341.86   43.53
  -1  -2  -3 2404.72   46.31
  -1  -2  -3 2401.28   48.28
  -1  -2  -4  904.79   27.83
   1   2   4  977.69   30.70
  -1  -2  -4  924.08   25.80
  -1  -2  -4  944.07   30.57
   1   2   4  891.54   26.66
  -1  -2  -4  908.83   28.76
   1   2   5 1028.24   34.91
  -1  -2  -5  941.07   32.61
   1   2   5  927.47   32.03
  -1  -2  -5  952.73   31.46
   1   2   6  661.93   30.13
  -1  -2  -6  615.04   28.65
   1   2   7   61.72   10.22
  -1  -2  -7   47.68    8.66
  -1  -3  -4  314.30   22.41
  -1  -3  -4  323.62   20.25
  -1  -3  -5  132.56   14.82
   1   3   5  113.36   11.25
  -1  -3  -6  155.20   16.51
   1   3   6  146.96   14.75
  -2   4   6   49.53    8.94
  -2   4   6   48.63    9.47
   2  -4  -6   30.53    6.54
   2  -4  -6   26.93    6.27
  -2   4   5   52.86    8.60
   2  -4  -5   49.30    8.06
   2  -4  -5   52.32    8.40
  -2   4   5   52.01    8.16
  -2   4   4   29.66    5.79
   2  -4  -4   34.31    6.30
   2  -4  -4   32.44    6.14
   2  -4  -4   31.26    6.10
   2  -4  -3  123.29   12.34
   2  -4  -3  131.57   13.26
  -2   3   7   38.22    8.15
   2  -3  -7   33.17    6.79
   2  -3  -7   36.93    7.73
  -2   3   7   30.22    6.35
   2  -3  -6  132.42   13.37
  -2   3   6  115.35   12.45
  -2   3   6  122.56   13.05
   2  -3  -6  130.55   13.51
  -2   3   5   22.33    4.91
   2  -3  -5   20.54    4.41
  -2   3   5   17.92    4.55
  -2   3   5   20.11    4.20
   2  -3  -5   24.17    5.16
   2  -3  -5   17.56    4.61
  -2   3   4 1134.96   32.74
   2  -3  -4 1103.69   31.66
  -2   3   4 1191.01   33.19
  -2   3   4 1109.11   31.68
   2  -3  -4 1113.24   31.48
   2  -3  -4 1091.49   31.29
  -2   3   3   72.67    7.69
   2  -3  -3   77.46    7.81
   2  -3  -3   73.54    7.61
   2  -3  -3   75.80    7.79
  -2   3   3   83.66    8.44
  -2   3   2 1635.19   36.21
   2  -3  -2 1775.62   37.18
   2  -3  -2 1703.54   33.66
   2  -3  -2 1634.28   34.21
   2  -3  -2 1751.97   36.73
  -2   3   2 1740.11   35.60
   2  -3  -1    6.93    2.55
   2  -3  -1    3.70    1.43
  -2   3   1    9.42    2.75
  -2   3   1    6.60    1.89
   2  -3  -1    3.54    1.04
   2  -2  -7   46.03    7.28
   2  -2  -6  124.83   12.62
  -2   2   6  114.21   11.54
   2  -2  -6  133.35   13.09
   2  -2  -6  130.43   12.28
  -2   2   5   79.49    8.67
  -2   2   5   64.60    7.10
   2  -2  -5   83.96    9.12
  -2   2   5   85.02    9.05
   2  -2  -5   88.72    9.54
   2  -2  -5   82.31    9.25
   2  -2  -5   75.88    7.90
  -2   2   4  250.60   12.70
   2  -2  -4  235.52   13.60
  -2   2   4  244.76   13.66
   2  -2  -4  238.19   11.92
  -2   2   4  238.70   13.70
   2  -2  -4  241.17   13.61
   2  -2  -4  230.10   13.27
   2  -2  -3   20.59    3.27
  -2   2   3   19.03    3.30
  -2   2   3   18.69    3.05
  -2   2   3   20.04    3.39
   2  -2  -3   16.78    2.71
   2  -2  -3   20.19    3.74
  -2   2   3   21.68    2.96
   2  -2  -3   18.38    3.45
   2  -2  -3   20.03    3.50
   2  -2  -2  132.65    8.22
   2  -2  -2  143.24    8.53
  -2   2   2  131.93    8.12
   2  -2  -2  130.56    7.96
   2  -2  -2  142.71    9.24
  -2   2   2  130.63    7.78
  -2   2   2  133.42    8.58
  -2   2   1  598.29   17.72
  -2   2   1  568.72   17.36
  -2   2   1  584.40   16.05
   2  -2  -1  609.95   15.80
   2  -2  -1  626.99   18.64
   2  -2  -1  614.87   15.89
  -2   2   1  634.29   15.81
  -2   2   1  636.83   16.12
   2  -2  -1  634.53   15.92
   2  -2  -1  623.84   15.30
   2  -2  -1  640.15   18.42
   2  -2   0 9989.29   73.25
  -2   2   0 9985.39   74.07
  -2   2   0 9997.08   77.39
  -2   2   0 9832.46   72.29
   2  -2   0 9938.19   70.72
  -2   2   0 9999.00   72.23
   2  -2   0 9829.13   75.49
  -2   2   0 9932.45   54.93
  -2   2  -1  123.54    9.24
  -2   2  -1  108.52    8.37
   2  -2   1  109.54    9.08
  -2   2  -1   96.51    6.77
  -2   2  -1   98.48    7.57
   2  -2   1  111.30    9.65
   2  -2   1  108.86    9.42
   2  -2   2 4095.96   44.98
  -2   2  -2 4066.64   20.89
   2  -1  -5   12.33    3.40
   2  -1  -5   10.11    2.53
   2  -1  -4    1.42    1.38
  -2   1   4    0.71    0.85
   2  -1  -4    0.87    0.98
   2  -1  -4    0.34    0.73
   2  -1  -4    0.28    0.32
  -2   1   3  473.89   16.44
   2  -1  -3  502.09   17.48
   2  -1  -3  514.36   14.60
  -2   1   3  521.98   16.83
   2  -1  -3  523.98   18.63
   2  -1  -3  496.98   17.30
  -2   1   2  247.32    9.99
  -2   1   2  261.52   11.15
   2  -1  -2  266.06    9.22
   2  -1  -2  247.82   10.73
  -2   1   2  260.78    9.39
   2  -1  -2  241.27    9.69
   2  -1  -2  280.89   10.95
   2  -1  -2  261.17   11.13
  -2   1   1 4870.13   35.45
  -2   1   1 4846.64   42.68
  -2   1   1 4823.84   42.07
  -2   1   1 4912.97   46.55
   2  -1  -1 4962.13   34.70
   2  -1  -1 4848.40   44.31
   2  -1  -1 4862.70   41.79
   2  -1  -1 4876.10   37.22
   2  -1  -1 4831.58   42.08
   2  -1  -1 4942.11   46.76
   2  -1   0  138.08    7.73
  -2   1   0  132.23    7.76
  -2   1   0  132.48    6.52
  -2   1   0  124.82    7.40
   2  -1   0  132.74    6.62
   2  -1   0  131.25    6.06
  -2   1   0  121.25    5.87
   2  -1   0  132.41    7.63
   2  -1   0  132.52    7.76
  -2   1   0  120.55    7.17
  -2   1  -1 8654.58   63.20
  -2   1  -1 8575.06   67.82
  -2   1  -1 8548.77   51.59
   2  -1   1 8504.31   51.00
   2  -1   1 8485.27   59.99
  -2   1  -1 8431.71   61.06
   2  -1   1 8631.17   66.93
   2  -1   1 8785.27   68.35
   2  -1   1 8557.32   64.29
  -2   1  -1 8516.21   67.53
  -2   1  -2  395.62   14.81
  -2   1  -2  396.42   16.14
   2  -1   2  389.63   14.87
  -2   1  -2  407.92   11.99
   2  -1   2  396.06   15.95
  -2   1  -2  377.09   14.72
   2  -1   2  374.35   15.29
  -2   1  -2  381.01   15.37
   2  -1   2  388.36   14.05
  -2   1  -3 1137.82   30.82
   2  -1   3 1136.63   29.64
  -2   1  -3 1101.92   24.83
   2  -1   3 1051.68   29.32
  -2   1  -3 1143.23   29.52
   2  -1   3 1030.94   28.58
  -2   1  -3 1145.60   30.06
   2  -1   3 1193.86   26.84
   2  -1   4  837.92   30.29
  -2   1  -4  891.98   27.38
   2  -1   4  825.29   30.49
  -2   1  -4  850.34   30.33
  -2   1  -4  933.06   31.36
   2  -1   5   -2.96    3.86
  -2   1  -5   -0.04    1.83
  -2   1  -5   -0.34    1.10
  -2   1  -5    2.96    2.02
   2   0   0  433.34   14.78
   2   0   0  441.31   14.76
  -2   0   0  407.60   14.33
   2   0   0  440.68   14.95
  -2   0   0  406.24   14.24
  -2   0  -1   93.12    6.02
  -2   0  -1   91.64    6.92
   2   0   1   94.21    6.77
  -2   0  -1  114.63    6.76
  -2   0  -1  104.54    7.43
  -2   0  -1   89.21    6.51
   2   0   1   81.89    6.67
   2   0   1   99.60    7.13
   2   0   1   90.10    5.98
   2   0   2   98.71    6.16
  -2   0  -2   92.00    7.33
  -2   0  -2  101.03    6.43
  -2   0  -2   92.45    7.41
   2   0   2   98.18    7.71
  -2   0  -2  102.59    6.78
  -2   0  -2   91.49    7.56
   2   0   2   94.07    7.51
   2   0   2   88.65    7.09
   2   0   2   92.80    6.27
  -2   0  -3  927.35   24.71
  -2   0  -3 1012.79   26.85
   2   0   3  954.39   23.12
   2   0   3  977.30   26.59
  -2   0  -3  947.46   23.89
   2   0   3  927.52   25.08
  -2   0  -3  939.11   26.58
   2   0   3  966.61   25.56
  -2   0  -4   28.20    5.11
  -2   0  -4   19.47    3.61
   2   0   4   22.95    4.07
   2   0   4   20.18    4.08
  -2   0  -4   21.22    4.44
   2   0   4   20.72    4.69
  -2   0  -4   23.04    4.12
   2   0   4   19.91    3.88
   2   0   5 1545.50   38.47
   2   0   5 1488.71   40.78
  -2   0  -5 1566.81   40.30
  -2   0  -5 1477.29   41.36
   2   0   6   27.21    6.41
  -2   0  -6   42.05    7.79
  -2   0  -6   36.32    7.42
  -2   0  -7  363.12   25.69
  -2   0  -7  345.67   23.14
  -2  -1  -1   47.96    7.19
  -2  -1  -1   62.60    9.34
  -2  -1  -2 1113.52   28.23
   2   1   2 1051.29   29.09
  -2  -1  -2 1207.60   30.53
   2   1   2 1220.92   31.38
  -2  -1  -2 1103.66   28.81
  -2  -1  -2 1141.65   30.08
   2   1   2 1078.81   28.60
   2   1   3   38.13    5.46
   2   1   3   44.81    5.88
  -2  -1  -3   41.41    5.51
  -2  -1  -3   41.30    5.63
  -2  -1  -3   41.17    5.90
   2   1   3   39.25    5.56
  -2  -1  -3   42.57    6.18
   2   1   4  109.49    9.62
   2   1   4  109.53   10.61
  -2  -1  -4  108.84   10.14
  -2  -1  -4  107.07    9.94
   2   1   5   13.83    3.93
   2   1   5   12.95    4.08
  -2  -1  -5   10.11    3.55
  -2  -1  -5    8.44    2.68
   2   1   6   14.30    5.16
   2   1   6    8.01    3.37
  -2  -1  -6   11.11    4.23
  -2  -1  -6    6.09    2.13
   2   1   7   41.27    7.77
   2   1   7   53.57   10.26
  -2  -1  -7   51.42   10.01
  -2  -1  -7   41.16    8.10
   2   2   3  164.91   12.29
  -2  -2  -3  115.01   12.66
  -2  -2  -4    0.19    2.27
   2   2   4    3.66    2.76
  -2  -2  -4    5.17    1.56
   2   2   5  124.11   12.54
   2   2   5  121.13   12.99
  -2  -2  -5  120.15   12.99
  -2  -2  -5  129.88   13.60
   2   2   6   14.58    4.84
   2   2   6    5.37    3.47
  -2  -2  -6    8.34    2.46
  -2  -2  -6    3.43    2.53
   3  -5  -5   82.87   13.01
   3  -5  -4   -2.41    3.96
   3  -5  -4   -8.40    5.82
  -3   4   6  430.81   27.60
   3  -4  -6  404.35   26.03
  -3   4   6  397.57   26.03
   3  -4  -6  416.55   26.16
   3  -4  -6  375.34   24.35
  -3   4   6  418.70   26.69
  -3   4   5   -3.16    3.30
  -3   4   5    0.25    1.43
  -3   4   5    1.16    0.65
   3  -4  -5    2.16    2.35
   3  -4  -5    4.66    3.62
   3  -4  -5   -1.30    0.72
  -3   4   4   53.52    8.12
  -3   4   4   60.27    8.88
   3  -4  -4   60.38    8.46
  -3   4   4   61.45    8.74
   3  -4  -4   53.67    8.24
   3  -4  -4   52.17    7.66
  -3   4   3  664.65   28.02
   3  -4  -3  720.47   29.49
   3  -4  -3  749.21   28.89
  -3   4   2  568.34   25.06
   3  -4  -2  541.28   29.25
   3  -4  -2  512.26   26.32
   3  -4  -2  529.59   26.73
   3  -4  -1 2035.45   76.68
   3  -4  -1 1982.90   53.94
   3  -3  -7  419.60   28.34
  -3   3   6  154.65   14.84
  -3   3   6  148.85   14.47
   3  -3  -6  169.79   16.72
  -3   3   6  136.54   14.34
   3  -3  -6  151.26   15.04
   3  -3  -6  147.67   14.75
  -3   3   5  117.00   11.56
  -3   3   5  114.75   11.98
   3  -3  -5  122.98   11.98
  -3   3   5  112.60   11.13
   3  -3  -5  119.21   11.88
   3  -3  -5  116.34   11.74
  -3   3   4 1073.59   31.71
  -3   3   4 1097.35   33.23
  -3   3   4 1106.18   34.06
   3  -3  -4 1119.45   33.85
   3  -3  -4 1070.40   31.51
   3  -3  -4 1061.79   31.49
  -3   3   3  379.20   17.28
  -3   3   3  394.27   18.47
  -3   3   3  356.50   18.02
   3  -3  -3  385.55   18.81
  -3   3   3  408.41   18.75
   3  -3  -3  363.91   16.99
   3  -3  -3  372.53   16.87
   3  -3  -3  394.47   17.81
  -3   3   2  586.03   22.32
  -3   3   2  548.97   22.00
   3  -3  -2  595.31   22.35
   3  -3  -2  549.60   19.02
   3  -3  -2  592.30   20.75
   3  -3  -2  598.80   21.91
  -3   3   2  638.07   21.95
  -3   3   1  164.19   12.16
  -3   3   1  181.40   12.58
   3  -3  -1  177.95   12.36
   3  -3  -1  171.99   12.20
  -3   3   0  202.35   14.28
   3  -3   0  232.25   15.78
   3  -3   0  224.14   15.36
  -3   3   0  192.90   13.06
   3  -3   0  227.12   16.21
   3  -3   1  694.73   45.12
   3  -3   1  686.80   44.36
  -3   3  -1  681.22   25.67
   3  -3   1  717.26   48.30
   3  -2  -6    0.44    1.71
   3  -2  -5 1789.27   53.32
   3  -2  -5 1783.24   48.37
  -3   2   4   22.85    4.46
   3  -2  -4   25.32    5.07
   3  -2  -4   30.58    5.55
   3  -2  -4   31.23    5.45
  -3   2   3 6129.59   65.57
  -3   2   3 6147.36   69.00
   3  -2  -3 5991.04   71.52
   3  -2  -3 6096.84   64.00
   3  -2  -3 6106.89   67.30
   3  -2  -3 6095.92   68.74
  -3   2   2 1046.46   22.89
  -3   2   2 1018.78   23.64
  -3   2   2 1077.27   28.24
  -3   2   2 1018.21   26.96
   3  -2  -2 1057.18   28.16
   3  -2  -2 1024.36   23.05
   3  -2  -2 1035.58   27.45
   3  -2  -2 1057.37   23.98
  -3   2   1 1869.48   34.17
  -3   2   1 1855.45   35.81
  -3   2   1 1858.11   33.56
  -3   2   1 1935.40   35.35
   3  -2  -1 1889.29   35.19
   3  -2  -1 1843.60   32.67
   3  -2  -1 1829.70   32.89
   3  -2  -1 1942.45   37.72
  -3   2   0 1170.01   28.74
  -3   2   0 1225.65   29.71
  -3   2   0 1217.18   27.17
   3  -2   0 1195.11   26.95
   3  -2   0 1168.33   28.08
   3  -2   0 1194.77   28.55
   3  -2   0 1169.50   29.47
  -3   2   0 1237.93   29.67
  -3   2  -1  373.92   17.50
  -3   2  -1  383.45   17.46
  -3   2  -1  339.23   14.16
   3  -2   1  396.53   14.80
   3  -2   1  363.20   16.02
  -3   2  -1  389.71   15.59
   3  -2   1  385.12   17.43
   3  -2   1  371.45   16.84
   3  -2   1  381.60   17.16
  -3   2  -1  376.38   17.76
   3  -2   2    8.17    2.87
   3  -2   2   13.29    4.22
  -3   2  -2    6.87    1.70
  -3   2  -2   12.52    3.25
  -3   2  -2   12.47    3.75
   3  -2   2   11.93    3.45
  -3   2  -2    9.36    3.04
  -3   2  -3  234.03   16.29
  -3   2  -3  217.37   14.57
   3  -2   3  202.10   17.76
  -3   2  -3  220.74   15.97
   3  -2   3  210.74   16.67
   3  -2   4   61.47   14.82
  -3   2  -4   54.00    8.75
  -3   2  -4   75.84   10.76
   3  -1  -3    5.95    2.25
  -3   1   3    4.09    1.92
   3  -1  -3    8.94    4.06
   3  -1  -2  216.14   13.49
  -3   1   2  221.38   13.71
   3  -1  -2  222.67   13.31
  -3   1   2  220.24   11.97
   3  -1  -2  249.33   11.57
   3  -1  -2  239.19   12.79
   3  -1  -1 6750.39   67.99
  -3   1   1 6936.72   69.99
  -3   1   1 6979.12   67.82
   3  -1  -1 6947.66   65.18
  -3   1   1 7139.41   69.66
   3  -1  -1 6823.27   66.54
   3  -1  -1 6741.84   70.67
  -3   1   0  439.79   17.55
  -3   1   0  437.56   17.47
  -3   1   0  383.10   16.53
   3  -1   0  421.23   14.68
   3  -1   0  428.50   13.79
  -3   1   0  412.79   15.16
   3  -1   0  423.30   16.83
   3  -1   0  440.79   17.52
   3  -1   0  403.96   16.55
  -3   1  -1 9099.01   83.06
  -3   1  -1 8803.93   79.45
  -3   1  -1 8965.23   84.19
   3  -1   1 8906.23   73.33
  -3   1  -1 9057.72   74.62
   3  -1   1 8997.51   83.61
   3  -1   1 9151.03   82.61
   3  -1   1 8941.13   77.95
  -3   1  -2 1435.60   35.04
  -3   1  -2 1453.88   31.62
  -3   1  -2 1516.89   36.69
   3  -1   2 1506.24   33.61
  -3   1  -2 1485.10   34.39
   3  -1   2 1416.65   34.54
   3  -1   2 1442.37   34.82
   3  -1   2 1441.32   31.50
  -3   1  -3 1689.57   40.46
  -3   1  -3 1715.21   41.57
   3  -1   3 1652.69   38.52
  -3   1  -3 1602.13   39.08
   3  -1   3 1648.00   39.40
   3  -1   3 1733.61   40.78
  -3   1  -4  339.49   20.04
   3  -1   4  319.51   19.18
   3  -1   4  329.67   19.58
  -3   1  -4  328.26   19.85
   3  -1   4  320.68   19.47
  -3   1  -4  342.14   20.13
   3  -1   5   28.03    6.85
   3  -1   5   25.36    6.16
  -3   1  -5   23.29    5.94
  -3   1  -5   21.55    5.79
   3  -1   6   10.24    4.45
  -3   1  -6   40.45    9.08
  -3   0   0 2219.50   43.35
   3   0   0 2193.81   45.36
  -3   0   0 2092.88   38.12
  -3   0   0 1998.35   40.21
   3   0   0 2076.40   39.09
   3   0   0 2056.00   42.82
   3   0   1  452.60   19.56
   3   0   1  449.13   19.57
  -3   0  -1  442.81   17.17
  -3   0  -1  437.61   19.28
   3   0   1  466.39   18.91
  -3   0  -1  442.01   19.52
  -3   0  -1  413.53   17.90
   3   0   1  453.03   19.95
  -3   0  -2 1596.70   38.00
   3   0   2 1560.80   36.08
  -3   0  -2 1632.88   38.79
  -3   0  -2 1536.91   36.74
   3   0   2 1636.47   38.76
   3   0   2 1559.48   37.39
  -3   0  -3 1493.94   38.22
  -3   0  -3 1621.20   39.52
   3   0   3 1544.62   39.06
  -3   0  -3 1519.67   38.64
   3   0   3 1513.35   38.36
   3   0   3 1577.02   39.39
  -3   0  -4   12.38    3.34
   3   0   4    8.74    2.87
  -3   0  -4   13.47    3.56
   3   0   4   13.61    3.74
  -3   0  -4   11.15    3.76
   3   0   4   11.09    3.57
  -3   0  -5 1169.66   39.43
   3   0   5 1150.34   39.31
  -3   0  -5 1092.26   38.74
   3   0   5 1148.22   38.91
   3   0   6  304.45   22.98
  -3   0  -6  269.00   21.56
   3   1   2   14.29    3.81
  -3  -1  -2   18.16    5.02
   3   1   2    3.05    1.70
   3   1   2   14.74    3.66
  -3  -1  -2   13.95    3.59
   3   1   3  160.52   14.33
  -3  -1  -3  209.59   16.11
  -3  -1  -3  172.21   14.37
   3   1   3  194.35   15.43
  -3  -1  -3  186.01   15.22
   3   1   3  195.43   14.90
   3   1   4  657.08   27.04
   3   1   4  688.25   32.28
  -3  -1  -4  645.89   28.45
   3   1   4  680.19   30.88
  -3  -1  -4  706.89   30.71
  -3  -1  -4  617.86   28.76
   3   1   5  354.47   21.56
   3   1   5  310.92   22.39
  -3  -1  -5  278.20   19.42
  -3  -1  -5  306.03   21.04
   3   1   6  820.43   38.05
  -3  -1  -6  658.77   34.35
   3   2   4   13.25    4.35
  -3  -2  -4   48.15   15.76
   3   2   5    2.22    3.12
   3   2   5    1.21    0.24
  -3  -2  -5    0.06    2.89
   4  -5  -3   16.46    8.00
  -4   4   5    3.75    2.35
  -4   4   5    5.83    2.23
  -4   4   5    7.76    3.25
   4  -4  -5    7.51    1.78
   4  -4  -5    1.14    3.12
  -4   4   4   52.71    8.80
   4  -4  -4   52.29    8.32
  -4   4   3  369.90   22.34
   4  -4  -3  347.13   21.12
   4  -4  -2   17.47    5.01
  -4   4   2   11.55    2.46
  -4   4   2   11.24    3.53
   4  -4  -2   16.97    5.20
  -4   4   1  535.74   27.40
   4  -4  -1  569.60   34.18
   4  -4  -1  594.61   34.70
   4  -4   0   18.98    7.79
   4  -4   0   -2.41    5.63
  -4   3   6  373.14   26.36
  -4   3   6  374.46   25.00
   4  -3  -6  406.12   34.36
   4  -3  -6  445.24   33.24
  -4   3   5  298.97   20.37
  -4   3   5  286.03   20.68
   4  -3  -5  323.06   23.31
   4  -3  -5  363.89   24.23
   4  -3  -5  309.84   20.72
  -4   3   4    3.08    2.25
   4  -3  -4    9.97    4.09
   4  -3  -3   36.55    6.68
  -4   3   3   34.06    6.22
  -4   3   3   33.66    5.84
   4  -3  -3   46.12    7.33
  -4   3   2  755.52   28.19
  -4   3   2  825.21   29.60
   4  -3  -2  749.07   27.11
   4  -3  -2  776.04   28.16
  -4   3   1   61.26    7.76
  -4   3   1   72.33    8.51
   4  -3  -1   69.15    7.65
   4  -3  -1   63.32    7.92
  -4   3   0  464.28   22.53
  -4   3   0  476.89   23.04
  -4   3   0  406.71   21.46
  -4   3   0  465.33   21.06
   4  -3   0  499.59   21.66
   4  -3   0  476.66   22.66
   4  -3   0  464.81   21.83
   4  -3   0  485.24   23.39
   4  -3   1    1.95    1.18
  -4   3  -1    5.78    2.97
   4  -3   1    4.18    2.66
  -4   3  -1    0.40    1.90
  -4   3  -1   -1.85    1.66
   4  -3   2   -3.00    2.51
   4  -3   2   -5.13    2.97
  -4   3  -2    0.08    1.08
   4  -3   3   -6.03   37.96
  -4   3  -3    0.48    1.43
   4  -2  -5  687.04   45.93
  -4   2   4  493.66   26.12
   4  -2  -4  608.91   33.20
   4  -2  -3 2017.66   50.55
  -4   2   3 1980.38   48.62
   4  -2  -3 2121.06   50.84
  -4   2   2 1772.14   43.38
  -4   2   2 1770.51   40.90
   4  -2  -2 1865.28   42.75
   4  -2  -2 1820.88   44.15
   4  -2  -1  158.28   12.00
  -4   2   1  158.09   12.61
  -4   2   1  133.97   10.92
  -4   2   1  145.72   10.61
   4  -2  -1  130.60   10.46
  -4   2   1  150.76   11.84
   4  -2  -1  131.20   10.77
   4  -2  -1  146.52   12.15
  -4   2   0   82.98    8.95
  -4   2   0   82.33    8.93
  -4   2   0   86.95    9.66
   4  -2   0   80.29    8.46
   4  -2   0   78.45    8.67
   4  -2   0   81.54    8.64
   4  -2   1    5.08    1.86
  -4   2  -1    7.05    2.48
   4  -2   1    2.64    1.37
  -4   2  -1    7.17    2.13
  -4   2  -1    8.43    2.03
   4  -2   1    7.56    2.57
  -4   2  -2  408.05   22.35
  -4   2  -2  427.95   21.74
  -4   2  -2  406.52   22.13
   4  -2   2  369.79   20.50
   4  -2   2  391.40   21.26
   4  -2   2  371.65   19.91
  -4   2  -3    4.42    1.47
   4  -2   3    7.71    3.42
  -4   2  -3    2.94    2.79
   4  -2   3    2.51    0.46
  -4   2  -3   10.54    3.41
   4  -2   3    6.12    3.72
  -4   2  -4  300.18   21.79
  -4   2  -4  359.75   25.05
  -4   2  -4  292.74   20.29
   4  -2   4  301.55   25.90
  -4   2  -5   -3.27    3.33
   4  -2   5   -8.53    5.88
  -4   2  -5    5.50    3.31
  -4   1   2 1734.23   49.30
  -4   1   2 1741.72   45.98
   4  -1  -2 1845.33   55.22
   4  -1  -1 2833.95   57.30
   4  -1  -1 2378.39   53.87
  -4   1   1 2471.16   50.78
  -4   1   1 2442.83   51.02
  -4   1   1 2535.52   50.95
   4  -1  -1 2886.30   57.52
   4  -1   0   48.52    6.75
   4  -1   0   58.10    7.92
  -4   1   0   59.44    7.48
  -4   1   0   38.97    6.00
  -4   1   0   53.95    7.49
   4  -1   0   50.16    7.14
  -4   1  -1  436.48   21.08
  -4   1  -1  436.59   21.80
   4  -1   1  421.17   18.87
  -4   1  -1  439.14   22.55
  -4   1  -1  430.14   20.37
   4  -1   1  440.37   22.17
   4  -1   1  441.15   22.44
   4  -1   1  422.18   20.55
  -4   1  -2  632.33   24.64
  -4   1  -2  624.41   27.36
  -4   1  -2  641.41   27.70
   4  -1   2  646.65   25.28
  -4   1  -2  665.53   26.66
   4  -1   2  616.54   26.33
   4  -1   2  625.05   27.03
   4  -1   2  677.18   26.78
   4  -1   3   17.71    4.97
  -4   1  -3   27.68    6.00
   4  -1   3   21.46    5.04
  -4   1  -3   15.85    4.36
   4  -1   3   13.73    2.85
  -4   1  -3   24.80    5.98
  -4   1  -4   90.06   11.45
  -4   1  -4   80.29   11.13
   4  -1   4   82.01   10.46
   4  -1   4   84.03   10.92
  -4   1  -4   83.44   10.72
   4  -1   4   87.69   11.24
   4  -1   5   19.14    5.77
  -4   1  -5   25.99    6.95
   4  -1   5   25.11    7.33
  -4   1  -5   36.86    9.19
  -4   1  -5   30.38    7.76
   4   0   1 2258.87   57.17
  -4   0  -1 2278.88   55.09
  -4   0  -1 2451.82   51.88
  -4   0  -1 2371.95   55.60
   4   0   1 2281.38   50.11
   4   0   1 2208.71   55.02
  -4   0  -2 1305.25   42.08
   4   0   2 1346.83   42.89
  -4   0  -2 1399.97   43.94
   4   0   2 1324.74   40.38
  -4   0  -2 1419.26   44.91
   4   0   2 1288.93   42.72
   4   0   3 1780.62   51.23
  -4   0  -3 1988.51   54.19
   4   0   3 2020.14   52.38
  -4   0  -3 1900.56   52.02
   4   0   3 1858.68   51.78
  -4   0  -3 1885.16   51.73
  -4   0  -4   33.64    7.03
   4   0   4   32.07    7.17
   4   0   4   39.35    7.73
  -4   0  -4   35.26    7.13
  -4   0  -4   33.25    6.95
   4   0   4   36.55    7.51
   4   0   5   94.05   13.13
  -4   0  -5  111.86   14.55
   4   1   3    3.00    3.04
  -4  -1  -3    1.72    3.08
   4   1   3   -2.93    2.75
  -4  -1  -3    0.76    3.69
  -4  -1  -4  649.32   41.90
  -4  -1  -4  623.43   40.71
  -5   4   3  156.78   16.50
  -5   4   3  168.82   16.27
   5  -4  -3  169.92   16.35
   5  -4  -3  156.50   16.16
  -5   4   2    6.60    2.54
   5  -4  -2    3.71    2.60
  -5   4   1  338.46   23.46
   5  -4  -1  352.27   25.20
   5  -4  -1  337.75   25.35
   5  -4   0    1.70    5.37
  -5   4   0    5.74    0.53
   5  -4   1    6.75   30.92
  -5   4  -1    3.45    3.24
   5  -3  -4   38.08    9.92
  -5   3   4   36.98    8.60
  -5   3   4   45.46    9.02
   5  -3  -4   37.45    8.19
   5  -3  -3   16.56    4.68
  -5   3   3   23.39    6.68
  -5   3   3   23.88    6.96
   5  -3  -3   22.02    6.03
   5  -3  -2    0.94    2.47
  -5   3   2   -4.82    2.89
  -5   3   2    9.43    3.61
   5  -3  -2    4.40    2.62
   5  -3  -1    5.73    3.58
  -5   3   1    4.56    2.60
   5  -3  -1    0.59    1.45
   5  -3   0   -1.14    2.16
  -5   3   0   10.32    4.55
  -5   3   0    4.54    3.02
  -5   3   0   -3.97    2.63
   5  -3   0    0.94    1.69
   5  -3   0    4.16    1.37
  -5   3  -1  114.43   13.30
  -5   3  -1  139.83   14.73
  -5   3  -1  132.74   14.45
   5  -3   1  133.16   13.70
   5  -3   1  127.41   14.08
   5  -3   1  138.82   14.88
   5  -3   2   24.58    8.17
  -5   3  -2   16.21    4.81
   5  -3   2   16.16    4.47
  -5   3  -2   23.23    6.04
  -5   3  -2   20.41    5.76
   5  -3   3   24.35   10.41
   5  -2  -3    3.74    3.69
  -5   2   3   25.44    7.25
  -5   2   3   22.90    8.07
   5  -2  -2   77.70   11.47
  -5   2   2   74.03   10.73
  -5   2   2   75.58    9.48
   5  -2  -2   63.92   11.27
   5  -2  -1  323.87   22.09
  -5   2   1  313.63   21.48
   5  -2  -1  358.21   22.90
  -5   2   1  333.59   21.68
  -5   2   1  311.12   21.00
   5  -2  -1  338.08   21.91
   5  -2   0  181.56   15.86
  -5   2   0  180.26   15.21
  -5   2   0  165.37   15.30
  -5   2   0  157.77   15.43
   5  -2   0  170.94   14.77
   5  -2   0  163.75   14.56
  -5   2  -1  100.18   11.52
  -5   2  -1  109.73   12.78
  -5   2  -1  111.15   13.16
   5  -2   1   97.86   11.55
   5  -2   1  100.38   11.73
   5  -2   1   92.69   11.47
  -5   2  -2  250.82   20.16
  -5   2  -2  244.03   18.96
  -5   2  -2  253.10   20.32
   5  -2   2  239.95   18.90
   5  -2   2  256.63   19.92
   5  -2   2  253.31   19.29
  -5   2  -3   12.44    6.10
  -5   2  -3   12.96    5.93
   5  -2   3   22.22    6.00
   5  -2   3   17.73    5.79
   5  -1  -1  561.07   42.18
  -5   1   1  517.45   28.15
  -5   1   1  551.58   30.28
   5  -1  -1  548.75   35.63
   5  -1   0    4.18    3.61
   5  -1   0    6.18    4.34
  -5   1   0    7.63    3.49
  -5   1   0    3.65    2.75
   5  -1   0    8.65    5.04
  -5   1   0    0.87    2.78
   5  -1   1    6.95    2.08
  -5   1  -1    7.26    2.68
  -5   1  -1    2.95    2.23
   5  -1   1    4.53    2.18
   5  -1   1    2.26    2.66
  -5   1  -1    4.97    1.99
  -5   1  -2   -1.55    0.66
  -5   1  -2   -0.41    1.27
   5  -1   2    0.70    2.58
   5  -1   3   94.45   13.11
  -5   1  -3   85.63   12.54
  -5   1  -3   95.04   12.88
   5  -1   3   81.57   11.54
  -5   1  -3   91.06   12.81
  -5   0  -2   24.51    8.25
   5   0   2   10.05    3.85
   5   0   2   19.47    5.99
   5   0   2   19.03    5.61
  -5   0  -3  181.81   21.92
   5   0   3  108.57   15.71
   5   0   3  145.93   16.76
  -5   0  -3  141.49   16.87
   5   0   3  130.13   15.71
  -5   0  -3  139.95   23.78
   6  -2  -1    9.61    6.37
   6  -2  -1   -1.21    5.89
  -6   2   0  309.82   25.43
   6  -2   0  259.67   23.58
  -6   2   0  308.50   26.39
   6  -2   0  327.44   27.62
   0   0   0    0.00    0.00


TITL diethyl_ether_phase_delta_3_45GPa in P-1
REM P-1 (#2 in standard setting)
CELL 0.71073   5.080866   5.632949   7.245096  97.3824 102.7486  97.0016
ZERR    2.00   0.000480   0.001007   0.001008   0.0130   0.0098   0.0107
LATT  1
SFAC C H O
UNIT 8.00 20.00 2.00
TREF
HKLF 4
END
_computing_structure_solution     'SHELXT 2018/2 (Sheldrick, 2018)'
;
_shelx_hkl_checksum              65702
_olex2_submission_special_instructions 'No special instructions were received'
loop_
_space_group_symop_operation_xyz
'x, y, z'
'-x, -y, -z'
loop_
_atom_site_label
_atom_site_type_symbol
_atom_site_fract_x
_atom_site_fract_y
_atom_site_fract_z
_atom_site_U_iso_or_equiv
_atom_site_adp_type
_atom_site_occupancy
_atom_site_site_symmetry_order
_atom_site_calc_flag
_atom_site_refinement_flags_posn
_atom_site_refinement_flags_adp
_atom_site_refinement_flags_occupancy
_atom_site_disorder_assembly
_atom_site_disorder_group
O1 O 0.5037(8) 0.2114(12) 0.3175(4) 0.0284(16) Uiso 1 1 d . . . . .
C1 C 0.5525(13) 0.442(2) 0.2643(7) 0.0307(17) Uiso 1 1 d . . . . .
H11 H 0.631428 0.429983 0.153823 0.037 Uiso 1 1 calc R U . . .
H12 H 0.679908 0.551643 0.368952 0.037 Uiso 1 1 calc R U . . .
C2 C 0.2846(12) 0.5367(19) 0.2166(9) 0.0303(17) Uiso 1 1 d . . . . .
H21 H 0.173772 0.446966 0.097511 0.045 Uiso 1 1 calc R U . . .
H23 H 0.318515 0.704999 0.205312 0.045 Uiso 1 1 calc R U . . .
H22 H 0.191093 0.518451 0.316722 0.045 Uiso 1 1 calc R U . . .
C3 C 0.7420(11) 0.0974(16) 0.3593(7) 0.0279(17) Uiso 1 1 d . . . . .
H31 H 0.709314 -0.029712 0.433682 0.033 Uiso 1 1 calc R U . . .
H32 H 0.893508 0.215939 0.436765 0.033 Uiso 1 1 calc R U . . .
C4 C 0.8200(11) -0.0114(16) 0.1783(6) 0.0311(17) Uiso 1 1 d . . . . .
H41 H 0.679282 -0.141256 0.108049 0.047 Uiso 1 1 calc R U . . .
H43 H 0.989265 -0.072654 0.213373 0.047 Uiso 1 1 calc R U . . .
H42 H 0.840480 0.111312 0.099832 0.047 Uiso 1 1 calc R U . . .
loop_
_atom_type_symbol
_atom_type_description
_atom_type_scat_dispersion_real
_atom_type_scat_dispersion_imag
_atom_type_scat_source
C C 0.0033 0.0016 'International Tables Vol C Tables 4.2.6.8 and 6.1.1.4'
H H 0.0000 0.0000 'International Tables Vol C Tables 4.2.6.8 and 6.1.1.4'
O O 0.0106 0.0060 'International Tables Vol C Tables 4.2.6.8 and 6.1.1.4'
loop_
_geom_angle_atom_site_label_1
_geom_angle_atom_site_label_2
_geom_angle_atom_site_label_3
_geom_angle
_geom_angle_site_symmetry_1
_geom_angle_site_symmetry_3
_geom_angle_publ_flag
C1 O1 C3 113.9(7) . . ?
O1 C1 H11 110.0 . . ?
O1 C1 H12 110.0 . . ?
O1 C1 C2 108.5(8) . . ?
H11 C1 H12 108.4 . . ?
C2 C1 H11 110.0 . . ?
C2 C1 H12 110.0 . . ?
C1 C2 H21 109.5 . . ?
C1 C2 H23 109.5 . . ?
C1 C2 H22 109.5 . . ?
H21 C2 H23 109.5 . . ?
H21 C2 H22 109.5 . . ?
H23 C2 H22 109.5 . . ?
O1 C3 H31 109.1 . . ?
O1 C3 H32 109.1 . . ?
O1 C3 C4 112.5(4) . . ?
H31 C3 H32 107.8 . . ?
C4 C3 H31 109.1 . . ?
C4 C3 H32 109.1 . . ?
C3 C4 H41 109.5 . . ?
C3 C4 H43 109.5 . . ?
C3 C4 H42 109.5 . . ?
H41 C4 H43 109.5 . . ?
H41 C4 H42 109.5 . . ?
H43 C4 H42 109.5 . . ?
loop_
_geom_bond_atom_site_label_1
_geom_bond_atom_site_label_2
_geom_bond_distance
_geom_bond_site_symmetry_2
_geom_bond_publ_flag
O1 C1 1.410(14) . ?
O1 C3 1.431(4) . ?
C1 H11 0.9700 . ?
C1 H12 0.9700 . ?
C1 C2 1.508(5) . ?
C2 H21 0.9600 . ?
C2 H23 0.9600 . ?
C2 H22 0.9600 . ?
C3 H31 0.9700 . ?
C3 H32 0.9700 . ?
C3 C4 1.528(6) . ?
C4 H41 0.9600 . ?
C4 H43 0.9600 . ?
C4 H42 0.9600 . ?
loop_
_geom_torsion_atom_site_label_1
_geom_torsion_atom_site_label_2
_geom_torsion_atom_site_label_3
_geom_torsion_atom_site_label_4
_geom_torsion
_geom_torsion_site_symmetry_1
_geom_torsion_site_symmetry_2
_geom_torsion_site_symmetry_3
_geom_torsion_site_symmetry_4
_geom_torsion_publ_flag
C1 O1 C3 C4 -77.6(7) . . . . ?
C3 O1 C1 C2 177.7(2) . . . . ?
