#------------------------------------------------------------------------------
#$Date: 2024-02-05 14:09:55 +0200 (Mon, 05 Feb 2024) $
#$Revision: 289697 $
#$URL: file:///home/coder/svn-repositories/cod/cif/1/57/04/1570443.cif $
#------------------------------------------------------------------------------
#
# This file is available in the Crystallography Open Database (COD),
# http://www.crystallography.net/
#
# All data on this site have been placed in the public domain by the
# contributors.
#
data_1570443
loop_
_publ_author_name
'Sacharczuk, Natalia'
'Olejniczak, Anna'
'Bujak, Maciej'
'Dziubek, Kamil Filip'
'Katrusiak, Andrzej'
'Podsiad&#x142;o, Marcin'
_publ_section_title
;
 Conformation-aggregation interplay in the simplest aliphatic ethers
 probed under high pressure.
;
_journal_issue                   'Pt 1'
_journal_name_full               IUCrJ
_journal_page_first              57
_journal_page_last               61
_journal_paper_doi               10.1107/S2052252523009995
_journal_volume                  11
_journal_year                    2024
_chemical_formula_moiety         'C4 H10 O'
_chemical_formula_sum            'C4 H10 O'
_chemical_formula_weight         74.12
_chemical_name_systematic        'diethyl ether'
_space_group_crystal_system      monoclinic
_space_group_IT_number           15
_space_group_name_Hall           '-I 2ya'
_space_group_name_H-M_alt        'I 1 2/a 1'
_atom_sites_solution_hydrogens   geom
_atom_sites_solution_primary     dual
_audit_creation_method
;
Olex2 1.5
(compiled 2022.04.07 svn.rca3783a0 for OlexSys, GUI svn.r6498)
;
_cell_angle_alpha                90
_cell_angle_beta                 93.793(16)
_cell_angle_gamma                90
_cell_formula_units_Z            4
_cell_length_a                   7.7073(12)
_cell_length_b                   4.0885(4)
_cell_length_c                   13.233(2)
_cell_measurement_reflns_used    695
_cell_measurement_temperature    295(2)
_cell_measurement_theta_max      26.3750
_cell_measurement_theta_min      5.2060
_cell_volume                     416.08(10)
_computing_cell_refinement       'CrysAlisPro 1.171.42.49 (Rigaku OD, 2022)'
_computing_data_collection       'CrysAlisPro 1.171.42.49 (Rigaku OD, 2022)'
_computing_data_reduction        'CrysAlisPro 1.171.42.49 (Rigaku OD, 2022)'
_computing_molecular_graphics    'Olex2 1.5 (Dolomanov et al., 2009)'
_computing_publication_material  'Olex2 1.5 (Dolomanov et al., 2009)'
_computing_structure_refinement  'SHELXL 2018/3 (Sheldrick, 2015)'
_computing_structure_solution    'SHELXT 2018/2 (Sheldrick, 2018)'
_diffrn_ambient_environment      'diamond-anvil cell'
_diffrn_ambient_pressure         2650000
_diffrn_ambient_temperature      295(2)
_diffrn_measured_fraction_theta_full 0.568
_diffrn_measured_fraction_theta_max 0.528
_diffrn_measurement_device_type  'KUMA KM4-CCD, Eos'
_diffrn_measurement_method       '\f- and \w-scans'
_diffrn_radiation_type           MoK\a
_diffrn_radiation_wavelength     0.71073
_diffrn_reflns_av_R_equivalents  0.0131
_diffrn_reflns_av_unetI/netI     0.0108
_diffrn_reflns_Laue_measured_fraction_full 0.568
_diffrn_reflns_Laue_measured_fraction_max 0.528
_diffrn_reflns_limit_h_max       8
_diffrn_reflns_limit_h_min       -7
_diffrn_reflns_limit_k_max       4
_diffrn_reflns_limit_k_min       -4
_diffrn_reflns_limit_l_max       14
_diffrn_reflns_limit_l_min       -14
_diffrn_reflns_number            1160
_diffrn_reflns_point_group_measured_fraction_full 0.568
_diffrn_reflns_point_group_measured_fraction_max 0.528
_diffrn_reflns_theta_full        25.242
_diffrn_reflns_theta_max         26.353
_diffrn_reflns_theta_min         5.221
_exptl_absorpt_coefficient_mu    0.081
_exptl_absorpt_correction_T_max  1.00000
_exptl_absorpt_correction_T_min  0.75208
_exptl_absorpt_correction_type   multi-scan
_exptl_absorpt_process_details
;
CrysAlisPro 1.171.42.49 (Rigaku Oxford Diffraction, 2022)
Empirical absorption correction using spherical harmonics,
implemented in SCALE3 ABSPACK scaling algorithm.
;
_exptl_crystal_colour            colourless
_exptl_crystal_density_diffrn    1.183
_exptl_crystal_description       disc
_exptl_crystal_F_000             168
_exptl_crystal_size_max          0.40
_exptl_crystal_size_mid          0.36
_exptl_crystal_size_min          0.24
_refine_diff_density_max         0.090
_refine_diff_density_min         -0.111
_refine_diff_density_rms         0.023
_refine_ls_extinction_method     none
_refine_ls_goodness_of_fit_ref   1.130
_refine_ls_hydrogen_treatment    constr
_refine_ls_matrix_type           full
_refine_ls_number_parameters     25
_refine_ls_number_reflns         223
_refine_ls_number_restraints     0
_refine_ls_restrained_S_all      1.130
_refine_ls_R_factor_all          0.0417
_refine_ls_R_factor_gt           0.0371
_refine_ls_shift/su_max          0.000
_refine_ls_shift/su_mean         0.000
_refine_ls_structure_factor_coef Fsqd
_refine_ls_weighting_details
'w=1/[\s^2^(Fo^2^)+(0.0545P)^2^+0.1653P] where P=(Fo^2^+2Fc^2^)/3'
_refine_ls_weighting_scheme      calc
_refine_ls_wR_factor_gt          0.1052
_refine_ls_wR_factor_ref         0.1085
_reflns_Friedel_coverage         0.000
_reflns_number_gt                202
_reflns_number_total             223
_reflns_threshold_expression     'I > 2\s(I)'
_cod_data_source_file            lq5055.cif
_cod_data_source_block           diethyl_ether_phase_gamma_2_65GPa
_cod_depositor_comments
'Adding full bibliography for 1570433--1570452.cif.'
_cod_original_cell_volume        416.07(10)
_cod_database_code               1570443
_shelx_shelxl_version_number     2018/3
_shelx_space_group_comment
;
The symmetry employed for this shelxl refinement is uniquely defined
by the following loop, which should always be used as a source of
symmetry information in preference to the above space-group names.
They are only intended as comments.
;
_exptl_absorpt_special_details
;
Data were collected at room temperature (295(2) K) and pressure of 2.65(2) GPa
(2650000 kPa).
;
_olex2_refinement_description
;
1. Fixed Uiso
 At 1.2 times of:
  All C(H,H) groups
 At 1.5 times of:
  All C(H,H,H) groups
2.a Secondary CH2 refined with riding coordinates:
 C1(H11,H12)
2.b Idealised Me refined as rotating group:
 C2(H23,H22,H21)
;
_shelx_res_file
;
TITL 4ede_a.res in I2/a
    4ede.res
    created by SHELXL-2018/3 at 12:48:16 on 22-Dec-2022
REM Old TITL 4ede in I2/a
REM SHELXT solution in I2/a: R1 0.201, Rweak 0.698, Alpha 0.066
REM <I/s> 0.715 for 17 systematic absences, Orientation as input
REM Formula found by SHELXT: C4 O
CELL 0.71073 7.7073 4.0885 13.2328 90 93.793 90
ZERR 4 0.0012 0.0004 0.002 0 0.016 0
LATT 2
SYMM 0.5-X,+Y,-Z
SFAC C H O
UNIT 16 40 4

L.S. 50
PLAN  10
CONF
BOND
list 4
MORE -1
BOND $H
fmap 2 53
acta
REM <olex2.extras>
REM <HklSrc "%.\\4ede.hkl">
REM </olex2.extras>

WGHT    0.054500    0.165300
FVAR       2.48784
O1    3    0.250000    0.144803    0.000000    10.50000    0.04145    0.02550 =
         0.03366    0.00000    0.00528    0.00000
C1    1    0.194949    0.342207    0.080020    11.00000    0.03452    0.02842 =
         0.03348   -0.00427    0.00210    0.00150
AFIX  23
H11   2    0.116628    0.510954    0.052854    11.00000   -1.20000
H12   2    0.294801    0.447906    0.114514    11.00000   -1.20000
AFIX   0
C2    1    0.104468    0.135188    0.153165    11.00000    0.03624    0.03707 =
         0.03606   -0.00718    0.00347    0.00058
AFIX 137
H23   2    0.066841    0.269719    0.207006    11.00000   -1.50000
H22   2    0.182974   -0.029239    0.180696    11.00000   -1.50000
H21   2    0.005409    0.031963    0.118826    11.00000   -1.50000
AFIX   0
HKLF 4




REM  4ede_a.res in I2/a
REM wR2 = 0.1085, GooF = S = 1.130, Restrained GooF = 1.130 for all data
REM R1 = 0.0371 for 202 Fo > 4sig(Fo) and 0.0417 for all 223 data
REM 25 parameters refined using 0 restraints

END

WGHT      0.0545      0.1653

REM Highest difference peak  0.090,  deepest hole -0.111,  1-sigma level  0.023
Q1    1   0.1572  0.2118 -0.0391  11.00000  0.05    0.09
Q2    1   0.3246  0.3179  0.1219  11.00000  0.05    0.07
Q3    1   0.0306  0.2754  0.2180  11.00000  0.05    0.07
Q4    1   0.0387  0.6390  0.1036  11.00000  0.05    0.06
Q5    1  -0.0067 -0.1426  0.1717  11.00000  0.05    0.05
Q6    1   0.1067 -0.0972  0.0832  11.00000  0.05    0.05
Q7    1   0.3407  0.2936  0.1994  11.00000  0.05    0.05
Q8    1   0.1915  0.2184  0.2184  11.00000  0.05    0.05
Q9    1  -0.0043  0.3747  0.1441  11.00000  0.05    0.05
Q10   1   0.1893 -0.0844  0.2566  11.00000  0.05    0.05
;
_shelx_res_checksum              84690
_shelx_hkl_file
;
   0  -1   1  507.44    7.78
   0   1  -1  482.83    7.60
   0  -1   1  512.19    8.01
   0  -1   3 1028.28   12.10
   0   1  -3 1005.84   12.01
   0   1  -3 1026.07   10.26
   0  -1   3 1014.71   10.25
   0  -1   3 1008.30   11.10
   0  -1   3  981.17   12.36
   0  -1   3 1011.42   10.79
   0  -1   5 4387.11   25.69
   0   1  -5 4399.09   27.77
   0   1  -5 4429.99   28.13
   0   1  -5 4425.83   30.57
   0  -1   5 4386.03   28.45
   0  -1   5 4442.25   30.64
   0  -1   5 4449.72   27.64
   0  -1   5 4399.96   31.09
   0   1  -5 4419.10   30.31
   0  -1   7 4917.54   35.40
   0  -1   7 4935.84   30.61
   0   1  -7 4894.81   38.25
   0   1  -7 4894.56   35.70
   0   1  -7 4891.05   37.48
   0  -1   7 4856.24   36.75
   0  -1   7 4894.75   37.82
   0   1  -9   25.76    3.88
   0  -1   9   15.68    3.21
   0  -1   9   16.09    3.15
   0  -1   9   14.45    3.22
   0  -2   2  106.62    5.07
   0  -2   2   96.52    5.06
   0   2  -2   99.19    5.09
   0  -2   2   99.69    5.31
   0  -2   2  111.83    3.88
   0  -2   2  100.91    4.30
   0   2  -2   99.57    4.74
   0   2  -2  103.16    3.69
   0  -2   2   93.29    4.94
   0   2  -4   32.37    3.20
   0   2  -4   33.93    2.57
   0  -2   4   39.70    3.57
   0  -2   4   33.92    3.17
   0  -2   4   35.49    2.81
   0   2  -4   33.20    3.32
   0  -2   4   32.17    3.37
   0  -2   4   34.70    3.17
   0   2  -4   38.20    2.80
   0  -2   4   31.85    2.61
   0  -2   6   11.96    2.88
   0  -2   6   10.53    2.25
   0   2  -6   12.25    2.63
   0   2  -6    8.85    2.84
   0  -2   6   10.53    2.23
   0  -2   6   11.03    2.73
   0  -2   6    7.93    2.35
   0   2  -6    9.72    2.13
   0   2  -6   10.53    2.35
   0   2  -6   11.96    3.09
   0  -2   8    5.64    3.07
   0   2  -8    8.57    3.28
   0  -2   8    4.73    2.88
   0   2  -8    7.33    3.53
   0   2 -10   33.60    5.25
   0  -2  10   28.58    4.70
   0   2 -10   28.08    4.79
   0  -2  10   38.48    5.24
   0  -2  12   58.04    6.79
   0  -2  12   69.38    6.83
   0  -3   3    7.73    2.61
   0  -3   3   11.80    3.44
   0   3  -3   10.69    3.04
   0  -3   5 1472.07   24.98
   0   3  -5 1487.29   24.45
   0  -3   5 1455.19   25.11
   0  -3   5 1518.01   24.47
   0   3  -5 1473.00   24.18
   0  -3   5 1464.11   26.44
   0   3  -7 2605.44   34.50
   0   3  -7 2558.63   36.05
   0  -3   7 2600.30   35.32
   0  -3   7 2615.38   36.80
   0  -3   9   25.57    5.37
   0   3  -9   22.34    4.99
   0   3  -9   24.54    5.50
   0  -3   9   29.86    5.25
   0  -3  11   57.58    8.09
   0   3 -11   60.07    8.02
   0  -3  11   63.46    7.80
   0   3 -11   70.01    8.33
   0  -3  13   28.98    6.85
   0  -4   4   22.56    4.72
   0  -4   6  127.54   10.22
   0   4  -6  121.74    9.36
   0  -4   8   18.13    5.28
   0   4  -8   11.70    5.27
   0   4 -10    1.70    5.17
  -1   0  -3    0.71    0.70
  -1   0  -3   -0.35    0.67
   1   0   3    0.56    0.73
  -1   0  -3   -0.10    0.69
  -1   0  -3   -1.55    0.83
   1   0   3   -0.34    0.79
   1   0   3    1.86    0.88
  -1   0  -5    0.65    1.15
   1   0   5    3.88    1.38
   1   0   5   -0.25    1.07
   1   0   5   -1.04    1.42
  -1   0  -5    0.31    1.23
  -1   0  -5    1.36    1.05
   1   0   5    1.27    1.31
  -1   0  -5    4.33    1.40
   1   0   7    2.84    1.98
   1   0   7    0.87    1.94
  -1   0  -7    2.58    1.83
  -1   0  -7    5.71    2.40
  -1  -1   6  360.41   10.18
  -1  -1   6  338.02    9.36
   1   1  -4  126.65    5.11
  -1  -1   4  125.18    4.73
  -1  -1   4  134.84    5.42
  -1  -1   4  124.44    5.13
  -1  -1   4  127.57    4.99
   1   1  -4  122.14    4.78
   1   1  -2   10.39    1.35
  -1  -1   2    9.47    1.34
  -1  -1   2    8.24    1.30
   1   1  -2    9.71    1.24
  -1  -1   2    8.38    1.23
  -1   1  -4  348.34    8.28
   1  -1   4  347.38    7.82
   1  -1   4  353.27    6.20
  -1   1  -4  335.11    6.32
   1  -1   4  340.00    7.78
   1  -1   4  344.06    8.27
  -1   1  -4  334.79    7.68
  -1   1  -4  340.10    7.75
   1  -1   4  345.22    7.85
  -1   1  -6    3.20    1.79
   1  -1   6    7.42    1.86
  -1   1  -6    3.72    1.76
  -1   1  -6    3.18    1.93
  -1   1  -6    3.36    1.32
   1  -1   6    4.35    1.98
   1  -1   6    5.12    2.01
   1  -1   6    3.64    1.50
  -1   1  -6    4.21    1.89
   1  -1   6    4.62    2.08
   1  -1   8  298.49   10.31
  -1   1  -8  284.37    9.81
  -1   1  -8  300.41    9.65
  -1   1  -8  314.30   10.29
   1  -1   8  315.44   10.53
   1  -1   8  309.02    9.67
  -1   1  -8  293.64   10.22
   1  -1   8  302.08   10.20
  -1   1 -10   17.88    3.77
   1  -1  10   17.62    3.75
   1  -1  10   15.20    3.60
   1  -1  12  169.62    9.94
   1  -1  12  170.23    9.74
  -1  -2  11    8.35    3.19
  -1  -2  11   12.43    3.83
  -1  -2   9   78.07    6.49
  -1  -2   9   81.77    6.82
   1   2  -7 2784.38   31.18
  -1  -2   7 2782.36   31.19
   1   2  -7 2905.46   33.23
  -1  -2   7 2781.94   32.04
  -1  -2   7 2728.41   32.96
  -1  -2   7 2807.97   29.91
  -1  -2   5 9227.25   50.24
  -1  -2   5 9140.31   49.52
  -1  -2   5 9113.15   52.46
   1   2  -5 9223.22   49.29
  -1  -2   5 9321.43   53.87
   1   2  -5 9238.48   51.80
   1   2  -5 9306.12   53.46
  -1  -2   3  246.11    7.10
  -1  -2   3  238.65    8.12
  -1  -2   3  217.66    7.66
   1   2  -3  232.50    7.85
  -1  -2   3  230.81    6.52
   1   2  -3  223.71    6.17
  -1  -2   3  234.84    7.98
   1   2  -3  236.43    6.82
  -1  -2   1   61.44    4.17
   1   2  -1   66.61    3.17
  -1  -2   1   62.04    3.98
   1   2  -1   62.05    4.23
  -1  -2   1   63.18    3.77
   1   2  -1   69.03    3.77
  -1  -2   1   67.37    4.33
  -1  -2  -1 1455.07   20.65
  -1  -2  -1 1473.80   19.81
  -1  -2  -1 1533.71   20.65
   1  -2   3  148.65    5.76
   1  -2   3  130.66    6.34
  -1   2  -3  132.11    6.27
  -1   2  -3  143.50    5.66
   1  -2   3  132.57    5.80
   1  -2   3  138.96    6.60
  -1   2  -5  545.52   13.39
   1  -2   5  542.35   13.31
   1  -2   5  530.25   11.62
   1  -2   5  547.08   11.67
  -1   2  -5  553.20   11.84
   1  -2   5  544.46   13.40
  -1   2  -5  546.89   12.13
   1  -2   5  555.00   12.18
   1  -2   7 5366.80   44.65
   1  -2   7 5387.86   45.75
  -1   2  -7 5306.60   40.82
  -1   2  -7 5346.62   43.56
  -1   2  -7 5323.98   44.71
   1  -2   7 5411.69   40.95
   1  -2   7 5496.68   41.98
  -1   2  -7 5364.32   40.89
  -1   2  -9  940.54   20.32
  -1   2  -9  929.70   20.54
   1  -2   9  964.64   20.61
  -1   2  -9  946.80   19.64
   1  -2   9  987.26   20.20
  -1   2  -9  931.47   19.36
   1  -2   9  987.90   19.98
   1  -2   9  996.32   21.84
   1  -2  11  139.18    9.57
  -1   2 -11  122.25    8.58
   1  -2  11  129.09    8.53
  -1   2 -11  128.42    8.54
  -1   2 -11  119.10    8.85
   1  -2  13   18.67    5.09
  -1   2 -13   20.90    5.35
  -1  -3  12  201.60   12.40
  -1  -3  12  196.10   12.51
   1   3 -10    8.72    4.12
   1   3 -10   16.03    5.42
  -1  -3  10    2.57    4.34
  -1  -3  10   10.12    4.40
  -1  -3   8   24.94    5.05
   1   3  -8   16.22    4.79
  -1  -3   8   26.69    5.14
   1   3  -8   22.67    4.46
  -1  -3   6  204.92    9.88
   1   3  -6  225.77    9.83
   1   3  -6  225.46   10.84
   1   3  -6  219.86   10.76
  -1  -3   6  223.58    9.82
  -1  -3   6  232.62   11.11
  -1  -3   6  223.26   10.28
   1   3  -6  221.90   10.09
   1   3  -4   20.89    4.17
   1   3  -4   13.82    3.48
  -1  -3   4   17.77    3.69
  -1  -3   4   18.19    3.74
  -1  -3   4   15.77    3.78
  -1  -3   2   -3.68    2.61
  -1  -3   2    3.78    2.57
  -1  -3   2   -3.15    2.81
   1   3  -2    1.81    2.76
  -1  -3   0  471.23   14.07
  -1  -3   0  469.36   12.98
   1  -3   4   25.88    4.21
  -1   3  -4   22.78    3.90
   1  -3   4   20.12    3.53
   1  -3   6   21.81    4.53
  -1   3  -6   22.52    4.67
   1  -3   6   17.87    4.55
   1  -3   8  151.45    9.77
   1  -3   8  151.04    9.74
  -1   3  -8  149.30    9.33
  -1   3  -8  167.87   10.10
   1  -3  10   13.61    3.91
  -1   3 -10    7.32    4.77
  -1   3 -10   14.46    4.83
   1  -3  10   12.78    4.90
  -1   3 -12   30.15    6.50
   1  -3  12   21.11    5.76
   1  -3  12   22.27    6.41
  -1   3 -12   21.24    6.42
   1   4  -9   -2.06    5.29
  -1  -4   9    0.45    5.27
   1   4  -7  225.04   12.92
  -1  -4   7  215.06   12.97
   1   4  -5  409.46   16.64
  -1  -4   5  389.90   16.10
   1   4  -5  398.93   16.20
  -1  -4   5  425.75   16.69
  -1  -4   5  401.54   16.20
  -1  -4   3   43.41    5.80
  -1   4  -7  319.04   14.42
  -1   4  -7  299.96   13.51
  -1   4  -9   99.92   10.02
   1  -4   9  104.37    9.95
  -1   4  -9   99.85    9.09
   1  -4   9  108.27   10.30
  -2   0  -4  784.89   10.45
   2   0   4  800.75   12.47
   2   0   4  793.60   12.34
  -2   0  -4  800.53   12.16
   2   0   4  769.30   10.23
   2   0   4  820.75   12.43
   2   0   4  815.21   11.01
  -2   0  -4  800.40   12.42
  -2   0  -4  774.43   11.96
  -2   0  -4  793.96   10.78
  -2   0  -6   54.71    3.92
  -2   0  -6   65.13    4.59
  -2   0  -6   57.75    4.24
  -2   0  -6   60.22    4.02
   2   0   6   57.08    3.81
   2   0   6   61.48    4.37
  -2   0  -6   56.11    3.32
   2   0   6   64.26    4.52
   2   0   6   62.29    4.27
  -2   0  -8  504.51   12.81
  -2   0  -8  520.62   13.66
  -2   0  -8  503.28   13.54
   2   0   8  492.35   12.38
   2   0   8  485.09   13.22
   2   0   8  514.88   13.91
   2   0   8  511.85   13.40
  -2   0 -10   83.94    6.68
   2   0  10   92.99    7.30
   2   0  10   82.86    6.56
  -2   0 -10   85.51    6.50
  -2  -1   3 3786.76   30.04
  -2  -1   3 3815.81   30.49
  -2  -1   3 3763.31   29.73
   2   1  -1 1773.21   15.78
  -2  -1   1 1832.53   15.95
  -2  -1   1 1773.67   17.91
  -2  -1   1 1835.77   17.65
  -2  -1   1 1729.94   17.85
   2   1  -1 1787.26   17.67
  -2  -1  -1  514.55    9.50
  -2  -1  -1  497.14    8.58
  -2  -1  -1  503.31    8.38
  -2  -1  -1  504.69    8.90
   2   1   1  504.71    8.52
  -2  -1  -3  566.06   10.53
  -2  -1  -3  582.82   11.19
   2   1   3  567.29   10.70
  -2  -1  -3  588.12   10.05
   2   1   3  548.86   10.42
  -2  -1  -3  570.82    9.19
   2   1   3  553.86    8.94
  -2  -1  -3  561.62    9.41
   2  -1   3  557.57   11.26
   2   1   3  572.47    9.57
  -2   1  -3  564.58   11.26
  -2  -1  -3  567.21    9.55
   2  -1   3  571.04   11.18
   2  -1   3  544.87   11.09
   2   1   3  535.32    9.68
  -2   1  -3  555.48   11.18
  -2  -1  -5    4.58    1.22
   2   1   5    5.54    1.87
   2  -1   5    4.83    2.19
  -2   1  -5    7.39    2.11
   2  -1   5    4.99    1.43
   2   1   5    9.62    1.69
   2  -1   5    4.04    1.78
   2   1   5    5.43    1.81
   2  -1   5    5.49    2.00
   2  -1   5    3.61    1.66
  -2  -1  -5    5.42    1.80
   2   1   5    5.40    2.17
  -2   1  -5    4.27    1.48
  -2  -1  -5    8.16    2.31
  -2   1  -5    5.45    1.98
  -2   1  -5    4.96    1.90
  -2  -1  -5    4.17    1.60
   2  -1   7 1133.73   16.81
   2  -1   7 1159.39   19.57
  -2  -1  -7 1129.23   19.53
  -2   1  -7 1108.31   16.42
   2  -1   7 1134.15   16.68
  -2   1  -7 1135.67   19.00
  -2  -1  -7 1149.60   19.77
   2   1   7 1094.27   20.06
  -2   1  -7 1119.93   18.96
  -2   1  -7 1157.47   19.23
   2  -1   7 1203.66   20.07
  -2   1  -7 1158.26   16.95
  -2  -1  -7 1108.61   20.31
   2  -1   7 1133.53   19.20
   2  -1   9 1005.79   20.64
  -2   1  -9 1074.50   20.83
   2  -1   9 1054.30   20.82
   2  -1   9 1045.74   20.77
  -2   1  -9 1023.43   20.29
  -2   1  -9 1051.23   20.36
   2  -1  11   -2.10    3.83
  -2   1 -11    1.88    3.48
   2  -1  11    1.15    4.35
   2  -1  11    4.37    4.05
  -2   1 -11   -0.57    3.92
   2  -1  13    3.64    4.20
   2  -1  13    9.13    4.65
  -2   1 -13    4.96    4.09
  -2  -2   8   97.22    6.91
  -2  -2   8   79.10    6.85
  -2  -2   8   97.52    6.71
  -2  -2   6    0.45    2.59
  -2  -2   6    6.09    2.53
  -2  -2   6    1.82    2.07
  -2  -2   6   -0.49    2.17
   2   2  -6    5.38    2.76
  -2  -2   4    3.89    1.74
   2   2  -4    4.64    2.22
  -2  -2   4    4.87    2.06
  -2  -2   4    7.33    2.12
   2   2  -4    3.34    1.66
  -2  -2   4    4.24    2.28
  -2  -2   4    6.96    1.95
   2   2  -4    6.83    2.46
  -2  -2   2   78.78    4.90
   2   2  -2   84.52    4.53
   2   2  -2   83.11    3.59
  -2  -2   2   79.26    4.60
  -2  -2   2   83.17    4.67
  -2  -2   2   79.85    3.61
  -2  -2   2   76.94    5.05
   2   2  -2   80.37    4.55
   2   2  -2   89.09    5.26
   2   2   0  246.96    6.57
   2   2   0  248.33    7.93
  -2  -2   0  253.70    8.55
  -2  -2   0  255.84    6.35
  -2  -2   0  252.03    7.59
   2   2   0  240.19    8.36
  -2  -2   0  256.80    8.50
  -2  -2   0  226.26    8.01
  -2  -2  -2 1115.82   18.62
  -2  -2  -2 1069.99   18.18
  -2  -2  -2 1128.52   15.95
  -2  -2  -2 1112.70   18.20
   2   2   2 1082.31   17.80
   2   2   2 1099.49   18.23
   2  -2   4   16.64    3.13
  -2   2  -4   16.06    2.87
  -2   2  -4   18.58    3.19
  -2  -2  -4   17.06    3.12
   2  -2   4   20.96    3.31
  -2  -2  -4   17.86    2.86
  -2  -2  -4   19.90    2.98
   2  -2   6  124.77    7.01
  -2   2  -6  122.88    7.44
  -2   2  -6  127.26    7.30
   2  -2   6  115.55    6.81
   2  -2   6  119.68    6.76
   2  -2   6  119.39    7.27
  -2   2  -6  124.05    6.89
   2  -2   8   13.05    3.66
  -2   2  -8    9.79    3.65
   2  -2   8   11.00    3.18
   2  -2   8   13.34    3.75
  -2   2  -8    9.60    3.48
  -2   2  -8    8.31    3.51
   2  -2   8   11.50    3.29
  -2   2  -8    5.06    2.90
  -2   2 -10   13.24    4.20
  -2   2 -10   19.45    4.96
   2  -2  10    2.86    3.87
   2  -2  10   13.89    4.44
  -2   2 -10   13.65    4.73
   2  -2  10   -0.22    4.15
  -2   2 -12   29.64    5.64
  -2   2 -12   28.24    5.62
   2  -2  12   21.45    5.27
   2  -2  12   22.35    5.58
  -2   2 -12   25.26    5.33
   2  -2  12   26.90    5.52
  -2   2 -14   48.55    7.50
  -2  -3  11   28.66    5.74
  -2  -3  11   25.11    5.84
  -2  -3   9    5.75    4.36
   2   3  -9    6.17    3.90
   2   3  -7  220.11   11.20
   2   3  -7  224.68   11.13
  -2  -3   7  208.63   11.14
  -2  -3   7  204.48   10.92
   2   3  -7  216.05   10.70
  -2  -3   7  200.37   10.40
   2   3  -5 3003.32   37.68
   2   3  -5 2853.12   36.08
  -2  -3   5 2886.00   36.87
  -2  -3   5 2906.55   36.56
  -2  -3   5 2804.76   36.36
   2   3  -5 2941.33   36.67
   2   3  -3 1068.21   20.72
  -2  -3   3 1035.88   21.54
  -2  -3   3 1048.14   21.54
   2   3  -3 1085.44   22.60
  -2  -3   3 1034.52   20.97
   2   3  -3 1110.34   21.99
   2   3  -1   43.05    4.67
  -2  -3   1   46.18    5.08
  -2  -3   1   43.15    4.87
  -2  -3   1   45.44    4.95
  -2  -3   1   37.77    4.95
   2   3  -1   49.73    5.56
  -2  -3  -1   44.37    5.10
  -2  -3  -1   39.61    4.81
  -2  -3  -1   44.42    4.89
  -2   3  -7 1257.87   25.87
   2  -3   7 1219.80   25.81
   2  -3   7 1283.32   27.51
  -2   3  -9 1315.68   28.05
  -2   3  -9 1339.03   28.94
   2  -3   9 1390.56   29.48
   2  -3   9 1357.91   30.34
  -2   3 -11   -4.74    4.95
   2  -3  11    7.63    5.93
   2   4  -8   18.31    6.07
  -2  -4   8    9.48    5.14
   2   4  -6   11.36    5.52
  -2  -4   6    7.23    4.46
   2   4  -6   -4.57    5.35
  -2  -4   6   12.39    5.02
  -2  -4   6    9.58    4.18
   2   4  -6    5.61    4.89
   2   4  -4  165.42   10.41
   2   4  -4  141.10    9.98
  -2  -4   4  146.58    9.88
  -2  -4   4  171.68   10.91
   2   4  -4  165.39   11.00
  -2  -4   4  156.42   10.74
   2   4  -2    3.29    3.83
  -2  -4   2   -4.16    3.77
  -2  -4   2    6.12    3.90
  -2  -4   0  269.16   13.41
  -3   0  -3   -3.39    2.16
   3   0   3   -3.23    2.09
  -3   0  -3   -1.42    1.91
  -3   0  -3   -2.89    1.55
   3   0   3   -5.68    2.39
   3   0   3   -0.50    1.65
  -3   0  -3   -2.72    1.53
   3   0   3   -2.75    1.78
  -3   0  -3    0.33    1.36
   3   0   5    1.55    2.25
   3   0   5    0.37    1.59
  -3   0  -5    3.29    1.64
   3   0   5    0.44    1.95
   3   0   5    1.44    2.13
  -3   0  -5   -0.67    1.58
  -3   0  -5    3.41    2.19
  -3   0  -5    2.84    2.18
  -3   0  -5    4.61    2.27
   3   0   5    1.44    1.74
   3   0   7    0.60    2.29
   3   0   7   -0.38    2.98
   3   0   7    3.51    3.17
  -3   0  -7   -0.20    2.05
   3   0   7    1.14    2.32
  -3   0  -7   -3.49    2.32
  -3   0  -7   -1.08    2.82
  -3   0  -7    0.52    2.04
   3   0   9   -0.21    3.26
  -3   0  -9   -6.18    3.33
  -3   0  -9   -0.80    2.58
  -3   0  -9    4.18    2.97
   3   0   9   -1.23    2.68
   3   0   9   -3.52    3.77
  -3   0  -9   -0.43    3.07
   3   0   9   -1.37    2.96
  -3   0 -11   -1.70    3.87
   3   0  11   -1.15    4.40
  -3   0 -11    0.66    3.04
   3   0  11    2.10    4.08
  -3   0 -13    1.69    4.11
   3   0  13   -0.56    4.87
  -3   0 -13   -0.13    4.06
  -3  -1   2  605.58   13.06
   3   1   0  192.19    6.59
  -3  -1   0  225.46    7.51
  -3  -1   0  264.61    8.71
  -3  -1   0  236.96    8.25
  -3  -1   0  205.34    7.66
   3   1   2 9873.33   38.56
   3   1   2 9793.18   47.16
  -3  -1  -2 9837.97   49.52
  -3  -1  -2 9848.67   38.52
  -3  -1  -2 9894.84   39.12
  -3  -1  -2 9897.30   41.85
  -3  -1  -2 9999.00   44.47
  -3  -1  -2 9845.46   46.85
   3   1   2 9794.53   44.16
   3   1   2 9826.01   39.52
   3   1   4 3419.07   30.57
   3  -1   4 3376.09   29.08
   3  -1   4 3410.78   32.11
  -3  -1  -4 3388.83   30.39
   3   1   4 3419.06   30.26
  -3   1  -4 3355.66   31.99
  -3  -1  -4 3414.86   30.38
  -3  -1  -4 3383.96   24.96
   3   1   4 3408.83   26.32
  -3   1  -4 3365.24   30.80
   3  -1   4 3381.06   32.17
   3   1   4 3336.15   27.17
  -3  -1  -4 3366.16   26.77
  -3  -1  -4 3371.29   27.14
   3  -1   4 3330.79   31.49
  -3  -1  -4 3346.69   25.78
  -3   1  -4 3349.87   32.14
   3   1   4 3384.02   27.54
  -3   1  -6  248.03    8.58
   3  -1   6  259.81    8.74
   3  -1   6  247.60    9.47
   3  -1   6  266.22    9.86
  -3  -1  -6  245.36    9.49
  -3  -1  -6  250.01    9.23
  -3   1  -6  254.02    9.33
  -3  -1  -6  237.97    8.77
  -3  -1  -6  237.60    8.89
   3  -1   6  268.19    9.59
   3   1   6  252.13    9.23
   3   1   6  240.08    8.91
  -3   1  -6  265.90    9.77
  -3   1  -6  256.53    9.43
   3   1   6  221.26    9.29
   3   1   6  247.23    9.21
   3   1   8   -4.05    3.73
   3  -1   8   -0.81    2.86
   3   1   8   -3.04    3.10
  -3  -1  -8    4.83    3.10
   3  -1   8    1.88    3.55
  -3   1  -8   -3.00    3.23
   3  -1   8    0.44    3.05
   3  -1   8    0.29    2.82
  -3  -1  -8    2.83    3.18
  -3   1  -8   -2.97    2.45
  -3   1  -8    4.85    3.53
  -3  -1  -8    3.92    3.00
  -3   1  -8    0.99    2.73
  -3   1 -10  137.34    8.66
  -3  -1 -10  112.42    8.30
  -3   1 -10  120.84    8.28
   3   1  10   99.18    8.05
   3  -1  10  128.98    8.46
  -3   1 -10  124.89    8.36
  -3  -1 -10  116.08    8.46
   3  -1  10  119.42    8.41
   3  -1  10  119.72    8.37
  -3   1 -12   10.79    4.66
  -3   1 -12   17.74    5.14
   3  -1  12   11.25    5.46
   3  -1  12   10.51    4.33
  -3   1 -12   14.01    5.24
   3  -1  12   11.30    4.34
   3  -1  14  194.81   12.83
  -3   1 -14  200.17   12.61
   3  -1  14  176.57   11.97
  -3  -2   7   -3.17    2.71
  -3  -2   7    1.58    2.47
  -3  -2   7   -0.57    2.57
  -3  -2   5 3754.80   39.13
  -3  -2   5 3795.51   40.22
  -3  -2   5 3799.68   40.85
   3   2  -3 6644.39   45.05
  -3  -2   3 6600.79   46.06
  -3  -2   3 6734.88   45.44
  -3  -2   3 6583.50   47.93
  -3  -2   3 6725.80   49.02
   3   2  -3 6664.68   47.13
   3   2  -1    8.50    2.02
  -3  -2   1    6.72    2.06
   3   2  -1    7.15    2.49
   3   2  -1    3.86    2.08
  -3  -2   1    5.45    2.09
  -3  -2   1   10.06    2.38
  -3  -2   1   10.14    2.60
   3   2   1   89.40    4.92
   3   2   1   92.71    5.83
  -3  -2  -1   81.64    5.43
  -3  -2  -1   99.83    5.87
  -3  -2  -1   83.01    5.47
  -3  -2  -1   86.65    4.71
   3   2   1   89.89    5.61
   3   2   3  957.50   17.19
  -3  -2  -3  939.38   17.50
  -3  -2  -3  926.31   17.44
   3   2   3  930.38   18.29
  -3  -2  -3  903.92   18.39
   3   2   3  902.18   17.65
  -3  -2  -3  947.24   16.85
   3   2   5   61.61    5.45
   3  -2   5   60.63    5.52
  -3  -2  -5   56.55    5.02
  -3  -2  -5   57.65    5.34
  -3   2  -5   59.81    5.55
   3  -2   5   58.51    5.44
  -3   2  -5   59.77    5.31
   3   2   5   52.28    5.45
  -3  -2  -5   50.42    4.82
   3  -2   7  351.76   12.77
  -3  -2  -7  361.37   13.28
  -3   2  -7  360.44   13.20
   3  -2   7  363.46   13.13
   3  -2   7  348.78   13.28
  -3   2  -7  391.13   13.40
  -3  -2  -7  366.44   13.06
  -3   2  -7  372.04   13.31
   3  -2   9 2365.00   34.65
   3  -2   9 2315.56   35.40
  -3   2  -9 2534.26   36.74
   3  -2   9 2403.71   36.95
  -3   2  -9 2472.41   35.48
  -3   2  -9 2361.10   34.82
   3  -2  11  184.90   11.02
  -3   2 -11  196.91   11.60
  -3   2 -11  193.04   11.58
   3  -2  11  164.44   10.77
  -3   2 -11  190.71   11.51
   3  -2  11  182.75   11.34
   3  -2  13  122.77   11.05
  -3   2 -13  144.89   11.65
   3  -2  13  115.60   10.59
   3  -2  13  135.56   13.60
  -3  -3   8    3.04    3.94
  -3  -3   8    8.92    3.78
   3   3  -6   47.50    6.03
  -3  -3   6   42.93    5.80
  -3  -3   6   41.43    5.24
  -3  -3   6   51.36    6.60
   3   3  -4  229.26   11.02
   3   3  -4  229.84   10.62
  -3  -3   4  215.02   10.45
  -3  -3   4  212.52   10.49
  -3  -3   4  195.47   10.23
   3   3  -4  224.18   10.87
   3   3   0   -3.29    3.35
  -3  -3   0    1.69    2.56
  -3  -3   0    2.79    2.86
  -3  -3   0   -3.80    3.26
   3   3   0    0.44    3.48
   3   3   2  239.40   10.78
  -3  -3  -2  256.83   11.37
  -3  -3  -2  244.67   11.11
  -3  -3  -2  247.67   11.06
   3   3   2  262.37   11.71
  -3  -3  -4  128.75    8.52
  -3  -3  -4  136.59    8.49
   3  -3   8   20.67    4.92
  -3   3  -8   28.93    5.76
  -3   3 -10   54.95    8.13
   3  -3  10   38.05    6.83
   3   4  -7    3.64    4.73
   3   4  -7   10.55    5.90
  -3  -4   7   10.26    4.78
   3   4  -7    5.50    4.62
  -3  -4   7    9.99    5.12
  -3  -4   7    1.52    4.63
   3   4  -5  342.61   15.87
   3   4  -5  317.44   14.86
  -3  -4   5  299.47   14.80
  -3  -4   5  314.77   15.25
  -3  -4   5  279.51   14.65
   3   4  -5  338.87   16.21
   3   4  -3  340.02   14.31
  -3  -4   3  351.10   15.94
  -3  -4   3  333.04   14.69
  -3  -4   3  316.44   15.02
   3   4  -3  322.34   15.46
  -3  -4   1    4.53    3.96
  -3  -4   1    3.70    4.17
   3   4  -1    6.15    4.91
  -3  -4  -1   30.96    5.45
  -3  -4  -1   19.64    4.79
   4   0   2 3114.69   32.38
  -4   0  -2 3199.10   30.93
  -4   0  -2 3147.31   29.57
   4   0   4 6898.33   46.90
   4   0   4 6872.53   46.30
   4   0   4 6868.07   46.77
  -4   0  -4 6842.86   45.11
  -4   0  -4 6899.83   38.10
  -4   0  -4 6919.01   45.96
  -4   0  -4 6934.39   45.87
  -4   0  -4 6902.26   47.14
   4   0   6   39.05    4.62
  -4   0  -6   33.78    4.08
   4   0   6   38.83    4.67
   4   0   6   40.57    4.49
  -4   0  -6   38.77    4.62
  -4   0  -6   40.99    4.51
   4   0   8  127.22    8.25
   4   0   8  134.87    8.34
   4   0   8  135.27    8.44
  -4   0  -8  131.61    8.18
  -4   0  -8  133.95    8.05
  -4   0  -8  134.08    8.07
  -4   0 -10  159.01    9.69
  -4   0 -10  156.37    9.58
  -4   0 -10  146.58    9.33
   4   0  10  145.90    9.51
   4   0  10  146.33    9.53
   4   0  10  165.54   10.22
  -4   0 -12   58.38    7.13
   4   0  12   52.76    7.55
   4   0  12   57.05    7.53
  -4   0 -12   65.84    7.25
  -4   0 -14   42.45    6.94
  -4  -1   1  469.29   12.39
   4   1   1   10.73    2.34
  -4  -1  -1    9.70    2.44
   4   1   1   10.15    1.90
  -4  -1  -1   12.62    2.32
  -4  -1  -1   13.87    2.15
  -4  -1  -1   10.90    2.34
  -4  -1  -1   12.72    2.55
   4   1   3  299.96    9.96
   4   1   3  297.17    8.61
   4   1   3  305.87    9.02
  -4  -1  -3  285.64    9.73
  -4  -1  -3  301.44    8.49
  -4  -1  -3  299.57    8.16
  -4  -1  -3  299.30    8.74
  -4  -1  -3  300.58    8.74
  -4  -1  -3  300.96    9.90
   4   1   3  294.85    8.52
   4   1   5  110.07    6.85
   4  -1   5  100.92    6.31
   4  -1   5  101.75    6.89
   4   1   5  107.15    6.66
  -4  -1  -5  103.56    6.44
  -4   1  -5   96.32    6.14
   4  -1   5  105.63    6.89
  -4  -1  -5  100.38    5.99
  -4  -1  -5   99.76    6.06
  -4   1  -5  101.92    6.69
  -4  -1  -5  103.38    6.53
   4   1   5   99.04    6.00
  -4   1  -5  101.41    6.76
   4   1   5   95.05    6.02
  -4  -1  -7    8.17    2.89
   4   1   7    0.44    3.78
   4   1   7   -2.26    3.02
   4   1   7   -2.91    3.09
   4  -1   7    6.58    3.46
   4   1   7    2.00    3.29
  -4  -1  -7    2.62    2.53
  -4   1  -7    6.05    3.04
   4  -1   7    7.85    3.57
  -4   1  -7    0.11    3.02
   4  -1   7    3.38    2.91
  -4  -1  -7    6.00    3.27
   4  -1   7    6.44    3.27
  -4   1  -7    3.14    3.24
  -4  -1  -7    4.92    3.17
  -4   1  -7    5.99    2.70
   4  -1   9  528.55   16.02
   4  -1   9  522.95   16.76
   4  -1   9  519.38   17.09
  -4   1  -9  522.25   15.83
  -4  -1  -9  508.30   15.89
   4  -1   9  549.68   16.64
  -4   1  -9  505.34   16.61
  -4   1  -9  532.69   16.63
   4   1   9  521.58   16.67
  -4  -1  -9  514.18   16.60
  -4   1  -9  519.32   15.60
   4   1   9  525.31   16.92
   4   1   9  537.19   17.42
  -4   1 -11  380.49   14.85
  -4  -1 -11  378.04   15.42
  -4   1 -11  372.61   15.42
   4  -1  11  354.18   14.72
   4   1  11  364.87   16.17
  -4   1 -11  377.45   15.52
   4  -1  11  350.86   15.33
  -4  -1 -11  347.64   15.13
   4  -1  11  351.01   15.20
   4  -1  13   25.14    6.38
  -4   1 -13   15.94    5.18
  -4   1 -13   17.01    4.77
   4  -1  13   27.27    6.41
   4  -1  13   23.68    6.29
  -4   1 -13   12.34    4.98
  -4  -2   4   24.20    4.24
  -4  -2   4   27.39    4.25
   4   2  -2    2.65    2.99
  -4  -2   2    2.14    2.55
  -4  -2   2    2.76    2.32
  -4  -2   2    1.53    2.17
  -4  -2   2    2.23    2.53
   4   2   0   18.87    3.73
   4   2   0   14.07    2.81
  -4  -2   0   16.53    3.16
  -4  -2   0   10.55    2.62
  -4  -2   0   14.02    3.23
  -4  -2   0   12.06    2.57
   4   2   2  309.99   10.80
   4   2   2  317.08   10.29
   4   2   2  327.93   11.60
  -4  -2  -2  332.33   11.70
  -4  -2  -2  334.81   10.78
  -4  -2  -2  285.32    9.89
  -4  -2  -2  302.81   10.59
   4   2   2  321.09   10.97
   4   2   4  599.28   15.46
   4   2   4  649.85   17.14
  -4  -2  -4  636.51   15.81
  -4  -2  -4  612.00   16.64
  -4  -2  -4  620.49   15.43
  -4  -2  -4  631.37   15.38
   4   2   4  626.17   15.74
   4   2   4  599.12   15.49
   4   2   6   -1.80    3.78
   4   2   6    4.59    3.95
  -4  -2  -6    2.90    2.88
  -4  -2  -6    3.43    3.10
   4  -2   8   78.71    7.74
  -4  -2  -8   72.95    7.27
  -4   2  -8   71.96    7.28
   4  -2   8   79.78    7.52
   4  -2   8   73.50    7.33
  -4   2  -8   76.20    7.17
  -4  -2  -8   62.35    6.82
  -4   2  -8   73.62    7.09
   4  -2  10   -1.50    4.84
  -4   2 -10    1.84    4.16
  -4   2 -10   -0.10    4.79
   4  -2  10    0.07    4.13
  -4   2 -10    0.06    4.23
   4  -2  10    8.30    4.90
   4  -2  12   12.87    4.99
   4  -2  12    9.45    6.10
  -4   2 -12   12.85    5.51
  -4   2 -12   12.12    5.57
   4  -2  12   16.93    6.23
  -4   2 -12    8.84    5.09
  -4  -3   7    1.27    4.02
  -4  -3   7    5.92    4.13
  -4  -3   5  350.19   13.66
  -4  -3   5  375.58   14.93
  -4  -3   5  366.21   15.33
   4   3  -5  375.62   14.74
   4   3  -3 2626.82   34.62
   4   3  -3 2639.99   34.34
  -4  -3   3 2605.19   35.93
  -4  -3   3 2623.23   34.38
  -4  -3   3 2602.25   36.97
  -4  -3   3 2620.52   37.53
   4   3  -3 2588.25   36.84
   4   3  -3 2675.02   37.45
   4   3  -1  377.11   14.35
   4   3  -1  383.82   13.60
  -4  -3   1  361.22   13.69
  -4  -3   1  355.78   13.71
  -4  -3   1  374.02   14.10
   4   3  -1  405.36   14.55
   4   3   1  278.22   12.64
   4   3   1  286.21   12.39
  -4  -3  -1  288.90   12.43
  -4  -3  -1  294.05   12.27
  -4  -3  -1  280.92   12.44
   4   3   1  321.20   13.55
   4   3   3    7.48    4.49
  -4  -3  -3   10.10    4.26
  -4  -3  -3    7.21    3.42
  -4  -3  -3    7.33    3.76
   4   3   3    2.27    3.94
  -4  -3  -5  107.84    8.74
  -4  -3  -5  113.99    8.38
   4  -3  11  364.01   17.07
   4   4  -6   49.22    7.52
   4   4  -6   62.65    8.12
  -4  -4   6   53.57    7.67
  -4  -4   6   63.96    8.17
  -4  -4   6   54.93    8.03
   4   4  -6   64.33    8.47
   4   4  -4    7.60    4.86
  -4  -4   4    6.25    4.63
  -4  -4   4   12.69    5.55
   4   4  -4    5.37    4.96
   4   4  -2  152.53   11.54
  -4  -4   2  161.13   11.42
  -4  -4   2  154.14   11.08
   4   4  -2  158.50   11.52
   4   4   0    4.83    4.78
  -4  -4   0    1.56    3.93
  -4  -4   0   -2.83    4.02
  -4  -4   0    0.54    4.69
   4   4   0   -2.98    5.39
  -4  -4  -2  260.02   13.75
  -4  -4  -2  254.79   13.98
   5   0   3    2.13    3.04
   5   0   3    2.27    2.88
  -5   0  -3    1.27    2.44
   5   0   5   -0.44    3.21
   5   0   5   -1.75    3.17
  -5   0  -5   -0.93    2.88
   5   0   5    4.00    3.20
  -5   0  -5   -1.28    2.82
  -5   0  -5   -1.22    2.64
   5   0   7    0.52    3.60
  -5   0  -7   -7.79    3.69
   5   0   7    0.47    3.55
   5   0   7   -1.96    3.40
  -5   0  -7   -1.75    3.51
  -5   0  -7   -2.00    3.12
   5   0   9    3.03    3.58
   5   0   9   -6.08    4.36
   5   0   9    6.27    4.38
  -5   0  -9    5.85    3.78
  -5   0  -9    1.80    4.05
  -5   0  -9   -0.23    3.40
   5   0  11    0.66    5.27
   5   0  11   -1.84    5.04
  -5   0 -11   -4.71    4.76
  -5   0 -11   -1.27    4.53
   5   0  11   -5.83    5.05
  -5   0 -11    0.74    4.15
  -5   0 -13    8.96    4.94
  -5   0 -13   -2.49    4.58
   5   1   2  182.04    8.53
  -5  -1  -2  178.93    8.85
  -5  -1  -2  186.20    7.83
  -5  -1  -2  166.40    8.09
   5   1   4 2873.34   34.54
  -5  -1  -4 2905.41   35.12
   5   1   4 2880.97   32.53
  -5  -1  -4 2860.76   30.65
  -5  -1  -4 2870.90   33.97
   5   1   6  555.98   15.22
   5   1   6  534.79   16.09
   5  -1   6  577.00   16.67
   5   1   6  546.45   15.11
   5  -1   6  555.35   17.23
   5   1   6  555.82   15.87
  -5  -1  -6  522.32   15.33
  -5   1  -6  528.80   14.91
  -5  -1  -6  564.69   15.09
  -5   1  -6  536.06   16.14
  -5  -1  -6  592.76   15.51
  -5  -1  -6  583.15   16.56
  -5   1  -6  552.57   16.69
   5   1   8  211.34   11.39
   5  -1   8  220.08   11.21
   5  -1   8  208.20   11.51
  -5  -1  -8  211.00   10.37
  -5   1  -8  216.67   10.63
   5  -1   8  209.21   11.41
  -5  -1  -8  219.76   10.95
   5  -1   8  209.54   11.10
  -5   1  -8  195.09   10.98
  -5  -1  -8  230.98   11.24
  -5  -1  -8  212.10   11.37
  -5   1  -8  226.35   11.91
  -5   1  -8  205.73   10.53
   5   1   8  211.71   10.58
   5   1   8  207.62   10.62
   5   1  10   16.25    6.07
  -5  -1 -10    1.01    4.14
   5   1  10   -7.38    5.70
   5  -1  10   10.40    5.97
  -5   1 -10    8.53    4.79
   5   1  10    4.45    4.43
  -5   1 -10    7.00    4.91
  -5  -1 -10    1.45    4.30
   5  -1  10   -0.45    4.75
  -5  -1 -12   67.58    8.47
   5  -1  12   63.99    8.28
   5   1  12   66.19    8.38
  -5   1 -12   57.26    7.94
   5  -1  12   71.34    9.48
  -5   1 -12   67.22    8.57
  -5  -1 -12   53.04    7.64
  -5  -2   3 1975.81   32.10
  -5  -2   1 2366.16   33.68
  -5  -2   1 2404.18   32.09
   5   2   1  122.50    7.10
  -5  -2  -1  110.30    7.67
  -5  -2  -1  109.57    6.75
  -5  -2  -1  103.12    6.65
  -5  -2  -1  116.20    7.27
   5   2   1  115.78    7.76
   5   2   3   34.34    4.72
   5   2   3   37.94    5.36
  -5  -2  -3   33.15    4.77
  -5  -2  -3   36.47    4.55
  -5  -2  -3   40.72    5.13
   5   2   3   41.81    5.22
   5   2   5  313.89   12.70
   5   2   5  351.76   13.98
  -5  -2  -5  321.44   13.28
  -5  -2  -5  335.65   13.27
   5   2   7   16.79    4.87
   5   2   7   17.09    4.90
  -5  -2  -7   18.18    4.59
  -5  -2  -7   23.66    5.24
   5  -2   9  217.11   12.45
  -5  -2  -9  221.59   12.53
  -5   2  -9  188.81   11.39
  -5   2  -9  205.92   12.27
  -5  -2  -9  218.20   12.71
  -5   2  -9  207.12   12.33
   5  -2  11  770.97   24.38
  -5   2 -11  786.62   23.95
   5  -2  11  767.86   25.86
  -5   2 -11  790.94   24.79
   5  -2  11  803.58   25.41
  -5   2 -11  790.59   24.77
  -5  -3   6   -6.89    4.57
  -5  -3   4   27.22    5.44
  -5  -3   4   18.56    4.53
   5   3  -2  178.85   10.50
  -5  -3   2  165.37   10.28
  -5  -3   2  178.94   10.56
  -5  -3   2  164.70   10.42
   5   3  -2  176.58   10.63
   5   3  -2  158.34   10.37
   5   3   0   20.62    4.96
   5   3   0   17.82    5.49
  -5  -3   0    5.67    3.36
  -5  -3   0   19.12    4.42
  -5  -3   0   14.93    4.14
   5   3   0   12.27    4.52
   5   3   2    7.12    4.22
   5   3   2   -6.26    4.74
  -5  -3  -2   -8.23    4.44
  -5  -3  -2    1.30    3.21
  -5  -3  -2    4.34    4.23
   5   3   2   -3.08    4.51
   5   3   4  189.63   11.97
  -5  -3  -4  179.60   11.61
   5   3   6   53.53    7.35
  -5  -3  -6   52.37    6.94
  -5  -3  -8   10.43    4.68
  -5  -3  -8   11.44    5.17
  -5  -4   3  269.66   14.96
  -5  -4   3  241.61   14.94
   5   4  -3  271.56   15.36
   5   4  -3  281.71   15.74
  -5  -4   1  157.04   11.67
  -5  -4   1  147.52   11.49
   5   4  -1  188.67   13.57
   5   4  -1  177.54   12.76
   5   4   1    2.86    5.08
   5   4   1    3.88    5.54
  -5  -4  -1    0.40    4.65
  -5  -4  -1    6.88    3.93
  -5  -4  -1   -4.98    4.22
   5   4   1    8.45    5.13
   5   4   3   37.69    6.91
  -5  -4  -3   46.50    7.37
  -5  -4  -3   37.94    7.13
   6   0   6 1817.00   31.94
   6   0   6 1755.91   30.74
  -6   0  -6 1747.65   29.66
  -6   0  -6 1711.15   30.04
  -6   0  -6 1797.89   30.53
   6   0   8   43.48    6.81
   6   0   8   40.42    6.47
   6   0   8   33.06    5.68
  -6   0  -8   39.26    6.18
  -6   0  -8   40.26    6.09
  -6   0  -8   36.31    5.26
   6   0  10  149.77   10.74
   6   0  10  151.49   11.35
  -6   0 -10  147.68   10.83
  -6   0 -10  153.50   10.75
  -6   0 -10  158.99   10.89
   6   0  10  159.48   11.37
   6   1   3   54.09    5.71
  -6  -1  -3   67.06    6.41
  -6  -1  -3   67.92    6.15
   6   1   7   55.90    7.24
   6   1   7   55.21    6.95
   6   1   7   43.98    6.13
  -6  -1  -7   57.48    6.28
  -6  -1  -7   57.78    6.73
  -6  -1  -7   54.73    6.54
   6   1   9    6.72    5.01
   6  -1   9   -8.86    5.25
   6  -1   9    7.77    5.21
   6   1   9    9.95    4.11
   6  -1   9    8.29    5.06
  -6   1  -9    0.92    4.01
  -6  -1  -9   11.38    5.40
  -6   1  -9   13.44    6.03
  -6  -1  -9    5.50    4.98
   6   1  11  196.05   13.02
   6  -1  11  173.90   12.99
  -6  -1 -11  197.12   13.00
  -6   1 -11  191.89   12.86
  -6  -2   0   -6.86    4.28
   6   2   2   16.78    4.31
   6   2   2   16.91    4.69
  -6  -2  -2   25.18    4.93
  -6  -2  -2   20.22    4.43
   6   2   4   90.05    7.58
   6   2   4   96.34    8.19
  -6  -2  -4   93.54    8.53
  -6  -2  -4  101.24    7.93
   6   2   6   79.01    8.13
   6   2   6   79.70    8.40
  -6  -2  -6   65.33    7.57
  -6  -2  -6   70.19    7.33
   6   2   8   10.02    5.63
   6   2   8    5.95    5.27
  -6  -2  -8    9.75    4.97
  -6  -2  -8   -8.80    4.52
   6   3  -3  293.10   14.30
  -6  -3   3  363.45   16.58
   6   3  -1 1294.72   28.63
  -6  -3   1 1362.58   30.86
  -6  -3   1 1318.32   28.93
  -6  -3   1 1343.49   30.64
   6   3  -1 1338.62   28.96
   6   3   1   56.44    7.17
   6   3   1   49.94    7.25
  -6  -3  -1   52.77    6.88
  -6  -3  -1   34.59    6.06
  -6  -3  -1   42.85    6.54
   6   3   1   50.98    7.22
   6   3   3  229.51   13.58
  -6  -3  -3  236.33   13.35
   6   3   5   15.40    6.50
  -6  -3  -5   -4.34    4.74
  -6  -3  -7   62.79    8.20
   7   0   7  -11.79    6.04
   7   0   7  -16.82    6.45
  -7   0  -7    3.97    4.29
   7   0   9    7.70    6.23
   7   0   9   -4.85    5.62
  -7   0  -9   -0.33    4.45
  -7   0  -9   10.95    6.09
  -7   0  -9   -3.61    4.50
   7   1   4  102.91    9.29
   7   1   6  740.41   22.20
   7   1   6  746.65   22.03
   7   1   8   66.38    8.62
  -7  -1  -8   57.52    7.46
   7   2   3  162.76   10.55
   7   2   3  175.54   11.59
  -7  -2  -3  169.12   11.38
  -7  -2  -3  150.08    9.98
   7   2   5   27.78    5.62
   7   2   5   25.56    6.18
  -7  -2  -5   24.18    5.50
  -7  -2  -5   23.49    5.19
   7   2   7  121.97   10.30
   7   2   7  133.03   11.16
  -7  -2  -7  132.60   10.83
  -7  -2  -7  136.25   10.69
   7   3   0   65.61    7.93
  -7  -3   0   71.46    8.73
  -7  -3   0   77.01    8.26
   7   3   0   74.96    8.46
   7   3   2    3.10    5.07
  -7  -3  -2    0.21    4.19
   8   2   4    7.69    5.39
   8   2   4   19.77    6.58
   0   0   0    0.00    0.00


TITL diethyl_ether_phase_gamma_2_65GPa in I2/a
REM I2/a (#15 in standard setting)
CELL 0.71073   7.707327   4.088537  13.232846  90.0000  93.7929  90.0000
ZERR    4.00   0.001221   0.000394   0.001986   0.0000   0.0158   0.0000
LATT  2
SYMM -x+1/2, y,-z
SFAC C H O
UNIT 16.00 40.00 4.00
TREF
HKLF 4
END
_computing_structure_solution     'SHELXT 2018/2 (Sheldrick, 2018)'
;
_shelx_hkl_checksum              48169
_olex2_submission_special_instructions 'No special instructions were received'
loop_
_space_group_symop_operation_xyz
'x, y, z'
'-x+1/2, y, -z'
'x+1/2, y+1/2, z+1/2'
'-x+1, y+1/2, -z+1/2'
'-x, -y, -z'
'x-1/2, -y, z'
'-x+1/2, -y+1/2, -z+1/2'
'x, -y+1/2, z+1/2'
loop_
_atom_site_label
_atom_site_type_symbol
_atom_site_fract_x
_atom_site_fract_y
_atom_site_fract_z
_atom_site_U_iso_or_equiv
_atom_site_adp_type
_atom_site_occupancy
_atom_site_site_symmetry_order
_atom_site_calc_flag
_atom_site_refinement_flags_posn
_atom_site_refinement_flags_adp
_atom_site_refinement_flags_occupancy
_atom_site_disorder_assembly
_atom_site_disorder_group
O1 O 0.250000 0.1448(3) 0.000000 0.0334(9) Uani 1 2 d S T P . .
C1 C 0.1949(3) 0.3422(4) 0.08002(14) 0.0321(9) Uani 1 1 d . . . . .
H11 H 0.116628 0.510954 0.052854 0.039 Uiso 1 1 calc R U . . .
H12 H 0.294801 0.447906 0.114514 0.039 Uiso 1 1 calc R U . . .
C2 C 0.1045(3) 0.1352(4) 0.15316(15) 0.0364(9) Uani 1 1 d . . . . .
H23 H 0.066841 0.269719 0.207006 0.055 Uiso 1 1 calc R U . . .
H22 H 0.182974 -0.029239 0.180696 0.055 Uiso 1 1 calc R U . . .
H21 H 0.005409 0.031963 0.118826 0.055 Uiso 1 1 calc R U . . .
loop_
_atom_site_aniso_label
_atom_site_aniso_U_11
_atom_site_aniso_U_22
_atom_site_aniso_U_33
_atom_site_aniso_U_23
_atom_site_aniso_U_13
_atom_site_aniso_U_12
O1 0.0415(18) 0.0255(10) 0.0337(14) 0.000 0.0053(13) 0.000
C1 0.0345(18) 0.0284(11) 0.0335(16) -0.0043(6) 0.0021(15) 0.0015(6)
C2 0.0362(19) 0.0371(12) 0.0361(16) -0.0072(6) 0.0035(15) 0.0006(7)
loop_
_atom_type_symbol
_atom_type_description
_atom_type_scat_dispersion_real
_atom_type_scat_dispersion_imag
_atom_type_scat_source
C C 0.0033 0.0016 'International Tables Vol C Tables 4.2.6.8 and 6.1.1.4'
H H 0.0000 0.0000 'International Tables Vol C Tables 4.2.6.8 and 6.1.1.4'
O O 0.0106 0.0060 'International Tables Vol C Tables 4.2.6.8 and 6.1.1.4'
loop_
_geom_angle_atom_site_label_1
_geom_angle_atom_site_label_2
_geom_angle_atom_site_label_3
_geom_angle
_geom_angle_site_symmetry_1
_geom_angle_site_symmetry_3
_geom_angle_publ_flag
C1 O1 C1 110.64(18) 2 . ?
O1 C1 H11 109.7 . . ?
O1 C1 H12 109.7 . . ?
O1 C1 C2 109.69(14) . . ?
H11 C1 H12 108.2 . . ?
C2 C1 H11 109.7 . . ?
C2 C1 H12 109.7 . . ?
C1 C2 H23 109.5 . . ?
C1 C2 H22 109.5 . . ?
C1 C2 H21 109.5 . . ?
H23 C2 H22 109.5 . . ?
H23 C2 H21 109.5 . . ?
H22 C2 H21 109.5 . . ?
loop_
_geom_bond_atom_site_label_1
_geom_bond_atom_site_label_2
_geom_bond_distance
_geom_bond_site_symmetry_2
_geom_bond_publ_flag
O1 C1 1.418(2) 2 ?
O1 C1 1.418(2) . ?
C1 H11 0.9700 . ?
C1 H12 0.9700 . ?
C1 C2 1.493(3) . ?
C2 H23 0.9600 . ?
C2 H22 0.9600 . ?
C2 H21 0.9600 . ?
loop_
_geom_torsion_atom_site_label_1
_geom_torsion_atom_site_label_2
_geom_torsion_atom_site_label_3
_geom_torsion_atom_site_label_4
_geom_torsion
_geom_torsion_site_symmetry_1
_geom_torsion_site_symmetry_2
_geom_torsion_site_symmetry_3
_geom_torsion_site_symmetry_4
_geom_torsion_publ_flag
C1 O1 C1 C2 168.50(15) 2 . . . ?
