#------------------------------------------------------------------------------
#$Date: 2024-02-05 14:09:55 +0200 (Mon, 05 Feb 2024) $
#$Revision: 289697 $
#$URL: file:///home/coder/svn-repositories/cod/cif/1/57/04/1570438.cif $
#------------------------------------------------------------------------------
#
# This file is available in the Crystallography Open Database (COD),
# http://www.crystallography.net/
#
# All data on this site have been placed in the public domain by the
# contributors.
#
data_1570438
loop_
_publ_author_name
'Sacharczuk, Natalia'
'Olejniczak, Anna'
'Bujak, Maciej'
'Dziubek, Kamil Filip'
'Katrusiak, Andrzej'
'Podsiad&#x142;o, Marcin'
_publ_section_title
;
 Conformation-aggregation interplay in the simplest aliphatic ethers
 probed under high pressure.
;
_journal_issue                   'Pt 1'
_journal_name_full               IUCrJ
_journal_page_first              57
_journal_page_last               61
_journal_paper_doi               10.1107/S2052252523009995
_journal_volume                  11
_journal_year                    2024
_chemical_formula_moiety         'C2 H6 O'
_chemical_formula_sum            'C2 H6 O'
_chemical_formula_weight         46.07
_chemical_name_systematic        'dimethyl ether'
_space_group_crystal_system      triclinic
_space_group_IT_number           2
_space_group_name_Hall           '-P 1'
_space_group_name_H-M_alt        'P -1'
_atom_sites_solution_hydrogens   geom
_atom_sites_solution_primary     direct
_audit_creation_method
;
Olex2 1.5
(compiled 2022.04.07 svn.rca3783a0 for OlexSys, GUI svn.r6498)
;
_cell_angle_alpha                90.641(19)
_cell_angle_beta                 93.97(3)
_cell_angle_gamma                90.04(5)
_cell_formula_units_Z            8
_cell_length_a                   4.250(4)
_cell_length_b                   8.198(3)
_cell_length_c                   12.6105(19)
_cell_measurement_reflns_used    842
_cell_measurement_temperature    295(2)
_cell_measurement_theta_max      23.5110
_cell_measurement_theta_min      4.9570
_cell_volume                     438.3(4)
_computing_cell_refinement       'CrysAlisPro 1.171.42.49 (Rigaku OD, 2022)'
_computing_data_collection       'CrysAlisPro 1.171.42.49 (Rigaku OD, 2022)'
_computing_data_reduction        'CrysAlisPro 1.171.42.49 (Rigaku OD, 2022)'
_computing_molecular_graphics    'Olex2 1.5 (Dolomanov et al., 2009)'
_computing_publication_material  'Olex2 1.5 (Dolomanov et al., 2009)'
_computing_structure_refinement  'SHELXL 2018/3 (Sheldrick, 2015)'
_computing_structure_solution    'SHELXS  (Sheldrick, 2008)'
_diffrn_ambient_environment      'diamond-anvil cell'
_diffrn_ambient_pressure         7300000
_diffrn_ambient_temperature      295(2)
_diffrn_measured_fraction_theta_full 0.322
_diffrn_measured_fraction_theta_max 0.300
_diffrn_measurement_device_type  'KUMA KM4-CCD, Eos'
_diffrn_measurement_method       '\f- and \w-scans'
_diffrn_radiation_type           MoK\a
_diffrn_radiation_wavelength     0.71073
_diffrn_reflns_av_R_equivalents  0.0418
_diffrn_reflns_av_unetI/netI     0.0434
_diffrn_reflns_Laue_measured_fraction_full 0.322
_diffrn_reflns_Laue_measured_fraction_max 0.300
_diffrn_reflns_limit_h_max       2
_diffrn_reflns_limit_h_min       -2
_diffrn_reflns_limit_k_max       9
_diffrn_reflns_limit_k_min       -9
_diffrn_reflns_limit_l_max       15
_diffrn_reflns_limit_l_min       -15
_diffrn_reflns_number            2349
_diffrn_reflns_point_group_measured_fraction_full 0.322
_diffrn_reflns_point_group_measured_fraction_max 0.300
_diffrn_reflns_theta_full        25.242
_diffrn_reflns_theta_max         26.119
_diffrn_reflns_theta_min         4.862
_exptl_absorpt_coefficient_mu    0.108
_exptl_absorpt_correction_T_max  1.00000
_exptl_absorpt_correction_T_min  0.76813
_exptl_absorpt_correction_type   multi-scan
_exptl_absorpt_process_details
;
CrysAlisPro 1.171.42.49 (Rigaku Oxford Diffraction, 2022)
Empirical absorption correction using spherical harmonics,
implemented in SCALE3 ABSPACK scaling algorithm.
;
_exptl_crystal_colour            colourless
_exptl_crystal_density_diffrn    1.396
_exptl_crystal_description       disc
_exptl_crystal_F_000             208
_exptl_crystal_size_max          0.40
_exptl_crystal_size_mid          0.38
_exptl_crystal_size_min          0.20
_refine_diff_density_max         0.155
_refine_diff_density_min         -0.145
_refine_diff_density_rms         0.042
_refine_ls_extinction_coef       0.15(4)
_refine_ls_extinction_expression Fc^*^=kFc[1+0.001xFc^2^\l^3^/sin(2\q)]^-1/4^
_refine_ls_extinction_method     'SHELXL-2018/3 (Sheldrick 2018)'
_refine_ls_goodness_of_fit_ref   1.055
_refine_ls_hydrogen_treatment    constr
_refine_ls_matrix_type           full
_refine_ls_number_parameters     118
_refine_ls_number_reflns         523
_refine_ls_number_restraints     0
_refine_ls_restrained_S_all      1.055
_refine_ls_R_factor_all          0.1062
_refine_ls_R_factor_gt           0.0793
_refine_ls_shift/su_max          0.000
_refine_ls_shift/su_mean         0.000
_refine_ls_structure_factor_coef Fsqd
_refine_ls_weighting_details
'w=1/[\s^2^(Fo^2^)+(0.0557P)^2^+1.6787P] where P=(Fo^2^+2Fc^2^)/3'
_refine_ls_weighting_scheme      calc
_refine_ls_wR_factor_gt          0.1688
_refine_ls_wR_factor_ref         0.1868
_reflns_Friedel_coverage         0.000
_reflns_number_gt                389
_reflns_number_total             523
_reflns_threshold_expression     'I > 2\s(I)'
_cod_data_source_file            lq5055.cif
_cod_data_source_block           dimethyl_ether_phase_gamma_7_30GPa
_cod_depositor_comments
'Adding full bibliography for 1570433--1570452.cif.'
_cod_database_code               1570438
_shelx_shelxl_version_number     2018/3
_shelx_space_group_comment
;
The symmetry employed for this shelxl refinement is uniquely defined
by the following loop, which should always be used as a source of
symmetry information in preference to the above space-group names.
They are only intended as comments.
;
_exptl_absorpt_special_details
;
Data were collected at room temperature (295(2) K) and pressure of 7.30(2) GPa
(7300000 kPa).
;
_olex2_refinement_description
;
1. Fixed Uiso
 At 1.5 times of:
  All C(H,H,H) groups
2.a Idealised Me refined as rotating group:
 C1(H13,H11,H12), C2(H23,H21,H22), C3(H33,H31,H32), C4(H42,H43,H41), C5(H51,
 H52,H53), C6(H62,H63,H61), C7(H73,H71,H72), C8(H81,H82,H83)
;
_shelx_res_file
;
TITL 7edm in P-1 #2
    7edm.res
    created by SHELXL-2018/3 at 15:20:45 on 03-Jan-2023
REM reset to P-1 #2
CELL 0.71073 4.249878 8.197962 12.610476 90.6411 93.9701 90.0394
ZERR 8 0.003506 0.002852 0.001881 0.019 0.0293 0.0475
LATT 1
SFAC C H O
UNIT 16 48 8

L.S. 50
PLAN  10
CONF
BOND
MORE -1
BOND $H
fmap 2 53
acta
REM <olex2.extras>
REM <HklSrc "%.\\7edm.hkl">
REM </olex2.extras>

WGHT    0.055700    1.678700
EXTI    0.148270
FVAR      18.12962
O1    3    0.239794    0.829231   -0.003703    11.00000    0.14826    0.04594 =
         0.04921    0.00478   -0.01174   -0.04316
C1    1   -0.041351    0.735816   -0.010477    11.00000    0.05361    0.04424 =
         0.04821   -0.00033    0.00886   -0.02120
AFIX 137
H13   2   -0.142119    0.743904   -0.080735    11.00000   -1.50000
H11   2   -0.180702    0.776448    0.040411    11.00000   -1.50000
H12   2    0.008136    0.623754    0.004302    11.00000   -1.50000
AFIX   0
C2    1    0.250036    0.912388    0.098479    11.00000    0.02774    0.03039 =
         0.05571   -0.00355   -0.00375    0.00877
AFIX 137
H23   2    0.413437    0.993563    0.101686    11.00000   -1.50000
H21   2    0.292871    0.834845    0.154095    11.00000   -1.50000
H22   2    0.050583    0.963852    0.107354    11.00000   -1.50000
AFIX   0

O2    3    0.844798    0.512602    0.193515    11.00000    0.03217    0.02116 =
         0.04821   -0.00516    0.00125    0.00602
C3    1    0.552227    0.500200    0.140870    11.00000    0.03283    0.03673 =
         0.04377   -0.00275    0.01427   -0.00475
AFIX 137
H33   2    0.542484    0.403031    0.097564    11.00000   -1.50000
H31   2    0.515165    0.593709    0.096605    11.00000   -1.50000
H32   2    0.394248    0.495181    0.191592    11.00000   -1.50000
AFIX   0
C4    1    0.862712    0.659108    0.254833    11.00000    0.13454    0.02941 =
         0.05675    0.00386   -0.01867   -0.02379
AFIX 137
H42   2    0.783470    0.748082    0.211966    11.00000   -1.50000
H43   2    1.078333    0.680152    0.278883    11.00000   -1.50000
H41   2    0.738439    0.648119    0.315095    11.00000   -1.50000
AFIX   0
O3    3    0.714078    0.012213    0.289494    11.00000    0.15993    0.04370 =
         0.04970    0.00847    0.00205   -0.04466
C5    1    0.428803   -0.014112    0.346966    11.00000    0.08538    0.05030 =
         0.06101    0.00667    0.00097   -0.01227
AFIX 137
H51   2    0.245633    0.012962    0.301779    11.00000   -1.50000
H52   2    0.437070    0.053987    0.409528    11.00000   -1.50000
H53   2    0.417646   -0.126455    0.367076    11.00000   -1.50000
AFIX   0
C6    1    0.679717    0.170933    0.249177    11.00000    0.10530    0.02912 =
         0.05357   -0.00489   -0.00033   -0.00186
AFIX 137
H62   2    0.510643    0.172508    0.194618    11.00000   -1.50000
H63   2    0.872158    0.203780    0.219885    11.00000   -1.50000
H61   2    0.632894    0.244860    0.305507    11.00000   -1.50000
AFIX   0

O4    3    0.260700    0.311666    0.497568    11.00000    0.03351    0.04153 =
         0.05122    0.00365    0.00522   -0.00974
C7    1   -0.008718    0.210692    0.504881    11.00000    0.09137    0.04490 =
         0.04097   -0.00515    0.01887   -0.02358
AFIX 137
H73   2    0.005406    0.156050    0.571974    11.00000   -1.50000
H71   2   -0.017860    0.131259    0.448232    11.00000   -1.50000
H72   2   -0.195690    0.276561    0.499377    11.00000   -1.50000
AFIX   0
C8    1    0.233639    0.411263    0.405286    11.00000    0.10278    0.02193 =
         0.05156   -0.00183    0.00390    0.00688
AFIX 137
H81   2    0.067885    0.489404    0.412051    11.00000   -1.50000
H82   2    0.185615    0.343922    0.343505    11.00000   -1.50000
H83   2    0.429215    0.467453    0.398230    11.00000   -1.50000
AFIX   0
HKLF 4




REM  7edm in P-1 #2
REM wR2 = 0.1868, GooF = S = 1.055, Restrained GooF = 1.055 for all data
REM R1 = 0.0793 for 389 Fo > 4sig(Fo) and 0.1062 for all 523 data
REM 118 parameters refined using 0 restraints

END

WGHT      0.0557      1.6787

REM Highest difference peak  0.155,  deepest hole -0.145,  1-sigma level  0.042
Q1    1   0.8166  0.6571  0.3369  11.00000  0.05    0.15
Q2    1   0.2010  0.4636  0.3373  11.00000  0.05    0.15
Q3    1   0.1278  0.4756  0.3380  11.00000  0.05    0.14
Q4    1   0.3804  0.7824  0.1533  11.00000  0.05    0.14
Q5    1   0.7712  0.3998  0.3078  11.00000  0.05    0.13
Q6    1   0.7118  0.4153  0.3061  11.00000  0.05    0.13
Q7    1  -0.2505  0.6612 -0.0587  11.00000  0.05    0.13
Q8    1   0.2336 -0.1165  0.3207  11.00000  0.05    0.13
Q9    1   0.3380  0.8194  0.2209  11.00000  0.05    0.13
Q10   1   0.2492  0.5832  0.3978  11.00000  0.05    0.13
;
_shelx_res_checksum              35799
_shelx_hkl_file
;
   0   0  -3 603.138 293.819   3
   0   0  -4 298902. 4592.39   1
   0   0  -4 282337. 4892.70   3
   0   0   4 294516. 4492.05   4
   0   0   4 292738. 4499.89   2
   0   0   4 289733. 4369.59   5
   0   0  -4 290684. 4093.33   6
   0   0  -4 295862. 4442.52   8
   0   0  -5 3385.75 763.014   3
   0   0  -5 3532.10 615.312   8
   0   0   5 2772.95 590.518   5
   0   0  -5 2992.08 594.385   1
   0   0   5 2480.99 491.713   7
   0   0  -5 2977.52 514.192   9
   0   0  -5 3336.08 600.476   6
   0   0   5 3067.16 599.782   2
   0   0   5 2924.39 590.515   4
   0   0   5 3345.24 540.633  12
   0   0  -6 85148.0 2077.91   9
   0   0   6 85152.7 2117.33  12
   0   0  -6 84777.4 2282.70   8
   0   0   6 85776.1 2321.10   2
   0   0   6 85679.6 2043.63   7
   0   0  -6 84920.7 2348.64   1
   0   0   6 85528.3 2262.32   5
   0   0   6 84959.2 2279.93   4
   0   0  -6 85669.8 2870.82   3
   0   0  -6 85149.6 2294.65   6
   0   0   7 4992.25 937.752   5
   0   0   7 4743.74 910.188   4
   0   0  -7 4476.55 1002.40   3
   0   0  -7 3880.65 868.743   8
   0   0  -7 3733.19 835.857   1
   0   0  -7 4727.32 772.464   9
   0   0  -7 4374.89 842.402   6
   0   0   7 3937.34 829.461   2
   0   0   7 5190.76 818.359   7
   0   0   7 4030.22 765.162  12
   0   0   8 94938.2 3325.07   7
   0   0  -8 99285.8 4262.97   3
   0   0   8 90513.8 3653.07   2
   0   0  -8 93696.4 3458.78   6
   0   0  -8 86149.1 3704.68   1
   0   0   8 89677.2 3647.08   4
   0   0   8 88882.0 3631.92   5
   0   0  -8 87195.1 3712.99   8
   0   0  -9 281.207 931.220   3
   0   0  -9 311.767 785.154   6
   0   0   9 129.473 784.155   4
   0   0  -9 783.768 825.328   1
   0   0   9 768.120 825.095   5
   0   0   9-365.272 719.415   2
   0   0  -9 194.129 736.990   8
   0   0   9 489.600 717.078   7
   0   0 -10 62739.6 3697.77   8
   0   0  10 62937.2 3582.36   5
   0   0 -10 60951.8 3639.27   1
   0   0  10 65250.1 3618.92   2
   0   0  10 62224.1 3563.25   4
   0   0 -11 1969.15 1588.54   3
   0   0  11-607.651 1078.50   4
   0   0  11 591.048 1089.30   5
   0   0 -11-486.612 1068.84   1
   0   0  11 1913.57 1186.22   2
   0   0 -11-90.8904 1029.51   8
   0   0  12 21047.4 2394.22   2
   0   0  12 23070.8 2589.04   4
   0   0 -12 28652.5 2942.05   8
   0   0 -12 26570.6 2857.68   1
   0   0  12 27564.9 2789.74   5
   0   0 -13 2751.72 1328.40   8
   0   0  13 4511.31 1532.23   5
   0   0  13 3133.02 1239.23   4
   0   0  13 1213.80 1132.00   2
   0   0 -13 3457.03 1355.82   1
   0   0  14 3469.83 1607.21   5
   0   0 -14 4018.27 1775.15   8
   0   0  14 5118.03 1710.69   2
   0   0  14 2110.23 1502.86   4
   0   0 -14 883.227 1662.81   3
   0   0 -14 4393.75 1753.80   1
   0   0 -15 1638.31 1539.32   1
   0   0  15-800.341 1483.09   2
   0   0  15-923.564 1722.28   4
   0   0  15-241.210 1703.77   5
   0   0 -15 2928.66 1995.60   3
   0   0 -15 973.896 1550.13   8
   0   1 -15-660.442 1924.36   3
   0   1 -14-1009.19 1642.07   3
   0   1 -14 2835.23 1439.88   1
   0  -1  14 1400.65 1480.10   2
   0  -1  14 2590.72 1597.92   4
   0  -1  13 4920.01 1596.67   5
   0  -1  13 2047.75 1395.18   4
   0   1 -13 2320.89 1415.40   1
   0   1 -13 1435.62 1653.06   3
   0  -1  13 1919.16 1337.83   2
   0   1 -13 2110.15 1367.91   8
   0   1 -12-1633.84 1361.35   1
   0   1 -12-1912.79 1583.77   3
   0  -1  12-52.3436 1191.59   4
   0  -1  12-461.676 1067.18   2
   0   1 -12-416.338 1102.93   8
   0  -1  12-1399.45 1250.64   5
   0   1 -11 15876.8 1887.66   6
   0   1 -11 18417.0 2329.16   1
   0   1 -11 16781.7 2089.08   8
   0  -1  11 14479.9 1924.34   7
   0  -1  11 15680.1 2065.28   4
   0  -1  11 13271.9 1904.03   2
   0  -1  11 19350.8 2082.38   5
   0  -1  10 1865.37 994.222   2
   0   1 -10 2920.03 1480.68   3
   0   1 -10 2528.33 1021.89   8
   0   1 -10 2507.02 1125.74   6
   0   1 -10 1667.74 1055.65   1
   0  -1  10 2746.42 1038.59   5
   0  -1  10 3635.42 1212.11   7
   0  -1  10 815.663 955.050   4
   0   1  -9 13382.3 1681.91   1
   0  -1   9 13327.0 1687.13   4
   0   1  -9 14237.6 1733.35   8
   0  -1   9 12903.5 1591.95   2
   0   1  -9 12091.9 1785.72   3
   0  -1   9 13319.3 1600.88   5
   0   1  -9 14019.4 1520.68   6
   0  -1   9 13997.4 1560.01   7
   0  -1   8 12987.2 1491.89   2
   0  -1   8 13194.5 1423.93   5
   0   1  -8 13664.5 1460.39   6
   0   1  -8 16612.3 1903.24   3
   0   1  -8 14040.3 1605.30   1
   0  -1   8 12057.5 1478.51   4
   0  -1   8 12923.4 1404.26   7
   0   1  -8 14463.4 1559.75   8
   0   1  -7 11535.6 1488.61   3
   0  -1   7 10825.9 1285.76   4
   0   1  -7 9842.39 1169.02   6
   0  -1   7 10010.5 1223.31   2
   0   1  -7 9808.84 1246.08   1
   0  -1   7 10886.5 1244.82   7
   0  -1   7 9706.59 1142.07   5
   0   1  -7 10370.6 1201.36   8
   0   1  -6 2816.44 237.826   6
   0   1  -6 2851.54 182.672  11
   0   1  -5 88306.1 2180.55  11
   0   1  -5 88895.6 2846.60   6
   0  -1   5 86604.2 2556.67   5
   0  -1   5 83848.9 2894.68   4
   0   1  -5 83033.9 2627.04   8
   0  -1   5 84733.2 2759.69   7
   0  -1   5 87332.5 2891.22   2
   0   1  -5 80873.4 2846.84   1
   0  -1   4 9373.59 864.080   2
   0  -1   4 9703.83 760.681   5
   0  -1   4 8579.80 824.643   7
   0   1  -4 8346.79 911.953   3
   0   1  -4 8469.98 858.926   1
   0  -1   4 8327.19 854.798   4
   0   1  -4 9206.67 874.025   6
   0  -1   3 398477. 4785.45   7
   0  -1   3 399153. 4763.41   4
   0   1  -3 403004. 4820.17   1
   0  -1   3 396829. 4684.71   2
   0   1  -3 395808. 4720.91   6
   0   1   3 347535. 4622.31   5
   0  -1  -3 344563. 4558.66   8
   0   1   3 342146. 4487.12  12
   0  -1  -3 348888. 4503.36   9
   0  -1  -4 20246.4 1182.20   1
   0   1   4 19523.4 1177.08   4
   0  -1  -4 18550.6 1210.07   3
   0  -1  -4 19214.5 1232.58   8
   0   1   4 19336.1 1200.47  12
   0  -1  -4 19468.4 1198.76   9
   0   1   4 20185.0 1171.35   2
   0   1   4 18658.2 1238.26   5
   0   1   5 201611. 3530.93  12
   0  -1  -5 202471. 3761.10   8
   0   1   5 201113. 3676.20   5
   0  -1  -5 200731. 3933.69   3
   0   1   5 201612. 3489.31   2
   0  -1  -5 200353. 3539.54   9
   0   1   5 200811. 3593.85   4
   0  -1  -5 201296. 3609.17   1
   0  -1  -6 22117.6 1971.93   3
   0   1   6 19725.5 1787.42   2
   0  -1  -6 18943.4 1678.81   1
   0   1   6 24759.9 1962.81   4
   0  -1  -6 20854.2 1896.03   8
   0  -1  -6 19050.6 1430.81   6
   0   1   6 24375.2 1509.75   7
   0   1   6 27008.4 2197.96   5
   0  -1  -6 21331.2 1717.11   9
   0   1   7 1908.92 748.393   5
   0   1   7 2848.43 804.148   2
   0  -1  -7 817.166 576.980   1
   0  -1  -7 789.063 635.492   8
   0  -1  -7 2021.58 904.601   3
   0   1   7 3586.63 697.000   7
   0   1   7 2666.59 860.628  12
   0  -1  -7 1075.47 571.067   9
   0   1   7 2645.39 823.687   4
   0   1   8 2335.82 941.336   5
   0  -1  -8-562.642 671.253   9
   0  -1  -8 367.034 647.291   8
   0   1   8 3108.42 968.959  12
   0  -1  -8 1199.81 725.279   1
   0   1   8 2950.34 989.978   4
   0   1   8 2490.94 887.812   2
   0  -1  -8 1143.53 972.483   3
   0  -1  -9 4969.96 1198.07   8
   0   1   9 3703.57 1052.04   2
   0  -1  -9 3937.03 952.450   9
   0  -1  -9 4668.25 1115.84   1
   0   1   9 5240.96 1224.54   5
   0   1   9 5946.72 1305.72   4
   0  -1  -9 3597.43 1152.32   3
   0  -1 -10 1817.77 1159.37   3
   0   1  10 2218.93 1147.02   4
   0  -1 -10 1448.14 948.112   8
   0  -1 -10 1881.31 985.524   1
   0   1  10 2191.66 1021.19   2
   0   1  10 2648.47 1227.35   5
   0   1  11 2995.20 1159.88   2
   0   1  11 2559.25 1238.05   5
   0  -1 -11 4892.33 1487.74   8
   0   1  11 5017.66 1422.34   4
   0  -1 -11 2843.98 1414.77   3
   0  -1 -11 3951.99 1275.60   1
   0  -1 -12-735.331 1193.19   8
   0   1  12 463.461 1035.65   2
   0   1  12 565.765 1227.01   5
   0   1  12 78.4664 1241.80   4
   0  -1 -12 398.861 1114.57   1
   0  -1 -12 593.882 1325.05   3
   0  -1 -13-1384.05 1400.64   3
   0   1  13 949.427 1310.54   5
   0   1  13 1439.72 1128.50   2
   0  -1 -13-422.261 1232.25   8
   0   1  13-88.1786 1248.69   4
   0  -1 -13 625.567 1244.21   1
   0   1  14-2624.94 1715.37   5
   0  -1 -14-323.309 1383.56   8
   0  -1 -14 556.522 1405.41   1
   0   1  14 234.385 1304.22   2
   0  -1 -14-1461.52 1669.22   3
   0  -1 -15 3299.94 1711.74   1
   0   1  15 5960.99 1956.07   2
   0  -1 -15-1169.07 1678.93   3
   0  -1 -15 7395.77 2144.08   8
   0   1  15 10780.9 2469.39   5
   0  -2  14 615.395 1277.47   2
   0   2 -14-2051.37 1807.28   3
   0   2 -14-413.482 1446.24   1
   0  -2  14-458.310 1418.90   4
   0   2 -13 1602.66 1289.19   1
   0   2 -13-1588.61 1735.33   3
   0  -2  13 2223.52 1245.64   2
   0  -2  13 963.671 1368.95   4
   0  -2  12 14490.6 2249.25   4
   0  -2  12 11437.0 1984.92   2
   0  -2  12 13832.6 2193.31   7
   0   2 -12 15095.3 2247.80   6
   0   2 -12 13825.4 2191.96   1
   0  -2  11-1204.69 1246.39   4
   0  -2  11-593.715 1103.25   7
   0   2 -11-1551.81 1475.03   3
   0   2 -11 17.5666 1173.54   6
   0   2 -11-1397.99 1186.53   1
   0  -2  11-1703.38 1241.47   2
   0   2 -10-1065.18 1135.78   6
   0  -2  10-4.51338 1048.82   4
   0  -2  10-93.3184 923.027   7
   0   2 -10 321.484 887.474   1
   0   2 -10 712.098 932.537   8
   0  -2  10-21.6770 844.302   2
   0   2 -10 1408.29 1359.43   3
   0   2  -9 6216.03 1223.52   8
   0   2  -9 4989.64 1187.02   1
   0  -2   9 7825.75 1232.29   5
   0  -2   9 6580.74 1306.72   7
   0  -2   9 6909.61 1365.09   4
   0   2  -9 6412.65 1307.30   6
   0   2  -9 3122.93 1207.11   3
   0  -2   9 7459.16 1342.78   2
   0  -2   8 76435.7 3118.12   5
   0  -2   8 73973.2 3561.54   7
   0  -2   8 74185.7 3517.65   2
   0   2  -8 54886.3 3143.87   1
   0  -2   8 71508.8 3451.54   4
   0   2  -8 71178.5 3521.04   6
   0   2  -8 60133.9 2934.31   8
   0  -2   7 10750.0 1139.23   5
   0   2  -7 10840.6 1117.08  11
   0  -2   7 10658.1 1327.96   7
   0   2  -7 9622.47 1438.98   3
   0   2  -7 10502.5 1360.37   1
   0  -2   7 9483.90 1246.52   2
   0   2  -7 11189.3 1255.41   8
   0   2  -7 11916.1 1403.00   6
   0  -2   7 10060.1 1072.17  10
   0  -2   7 11195.9 1387.69   4
   0  -2   6 26006.3 1510.30   5
   0   2  -6 23967.2 1815.50   6
   0  -2   6 25466.4 1860.09   7
   0  -2   6 24128.0 1552.19  10
   0   2  -6 22219.4 1710.73   1
   0  -2   6 24094.7 1750.84   2
   0   2  -6 23220.8 1510.19   8
   0  -2   6 23482.0 1778.94   4
   0   2  -6 23974.3 1887.31   3
   0  -2   5 40504.6 2125.80   7
   0  -2   5 39964.8 1885.77  10
   0   2  -5 39046.4 2043.17   1
   0   2  -5 37332.9 1684.48   8
   0  -2   5 38262.4 1604.05   5
   0  -2   5 38702.3 1996.58   2
   0   2  -5 39525.1 2186.73   3
   0  -2   5 38055.7 1997.98   4
   0   2  -5 35478.6 1940.31   6
   0   2  -4 522002. 7037.05   3
   0  -2   4 491608. 6863.36   7
   0  -2   4 507709. 6348.69  10
   0   2  -4 507920. 6546.00   1
   0   2  -4 512635. 6833.11   6
   0  -2   4 507522. 6420.55   2
   0  -2   4 506515. 6500.29   4
   0  -2   3 287201. 4567.96  10
   0  -2   3 287070. 4288.69   2
   0   2  -3 274717. 4574.94   3
   0  -2   3 292182. 4811.02   7
   0  -2   3 285120. 4328.97   4
   0   2  -3 291164. 4408.22   1
   0   2  -3 285893. 4694.44   6
   0  -2   2 478589. 5613.45  10
   0  -2   2 490804. 5571.93   7
   0  -2   1 34191.9 1434.29  10
   0  -2  -1 17915.0 1068.68  15
   0   2   1 16256.6 1014.49  12
   0   2   1 17733.7 1103.59  13
   0  -2  -1 18549.2 1096.26  16
   0  -2  -2 536675. 6047.50  15
   0   2   2 533967. 5823.93   5
   0   2   2 527874. 6203.74  12
   0  -2  -2 546609. 6164.33   9
   0   2   2 530856. 6132.40  13
   0  -2  -2 535544. 6028.05  16
   0  -2  -3 291477. 4957.85   9
   0   2   3 280379. 4909.45  12
   0   2   3 281722. 4704.40   5
   0   2   3 283401. 4625.37  13
   0  -2  -3 282617. 4552.18  16
   0  -2  -3 279523. 4585.89  15
   0  -2  -3 285867. 4668.16   8
   0   2   4 524902. 7148.19  12
   0  -2  -4 521414. 6390.50  16
   0   2   4 522000. 6994.31   5
   0  -2  -4 519465. 6093.77   1
   0  -2  -4 524564. 6977.38   8
   0  -2  -4 503944. 7037.91   9
   0   2   4 521175. 5967.19   2
   0  -2  -5 31918.9 1905.44   1
   0   2   5 35105.8 2141.52  12
   0   2   5 35051.9 1797.18   2
   0   2   6 28671.6 1971.06  12
   0  -2  -6 26222.3 1552.72  16
   0   2   6 26731.5 1693.12   2
   0  -2  -6 27858.7 1939.41   9
   0  -2  -6 27686.3 1960.17   8
   0  -2  -6 28509.3 1883.03   3
   0   2   6 28593.3 2016.21   5
   0  -2  -6 28769.6 1796.76   1
   0   2   6 30133.2 1907.41   4
   0  -2  -7 3899.61 932.353   9
   0   2   7 4812.77 1076.43  12
   0   2   7 5283.89 976.182   2
   0   2   7 6405.58 1174.71   5
   0  -2  -7 4861.92 1037.06   3
   0   2   7 5051.68 1014.59   4
   0  -2  -7 3971.90 966.455   8
   0  -2  -7 3938.58 849.123   1
   0   2   8 114306. 4458.40   5
   0  -2  -8 114967. 4385.17   9
   0  -2  -8 111121. 4143.03   1
   0   2   8 112036. 4194.44   4
   0  -2  -8 112536. 4471.94   8
   0   2   8 112137. 4032.86   2
   0  -2  -8 124068. 4610.65   3
   0   2   8 122843. 4532.97  12
   0  -2  -9 10169.2 1483.58   9
   0   2   9 9894.84 1502.57  12
   0  -2  -9 9722.57 1600.93   8
   0  -2  -9 9308.45 1525.86   3
   0  -2  -9 8228.25 1376.43   1
   0   2   9 8079.34 1336.21   2
   0   2   9 8475.70 1466.40   4
   0   2   9 9687.67 1563.46   5
   0  -2 -10-2040.54 1267.24   3
   0  -2 -10-123.696 993.556   8
   0  -2 -10 190.609 819.191   1
   0   2  10-1750.79 1277.96   5
   0  -2 -10-349.949 929.160   9
   0   2  10 330.602 859.114   2
   0  -2 -11 3535.58 1340.30   3
   0   2  11 7298.38 1587.39   2
   0   2  11 7248.93 1695.09   5
   0  -2 -11 10066.6 1857.26   8
   0  -2 -11 8123.37 1607.51   1
   0  -2 -12 24050.1 2814.97   8
   0  -2 -12 25056.7 2723.83   1
   0   2  12 24664.3 2815.77   5
   0   2  12 25901.1 2677.82   2
   0  -2 -13 180.781 1297.48   8
   0  -2 -13 2770.98 1457.98   1
   0   2  13-827.451 1471.31   5
   0   2  13-316.581 1143.38   2
   0   2  14 1200.59 1416.73   2
   0   2  14 849.424 1575.58   5
   0  -2 -14 1047.18 1476.07   8
   0  -2 -14 1117.78 1456.32   1
   0  -2 -15 5527.82 2104.06   1
   0   2  15 6547.02 2025.64   2
   0  -3  14 249.187 1458.84   7
   0   3 -14 2072.44 1493.62   1
   0  -3  14 2753.24 1644.21   4
   0  -3  14 843.989 1331.69   2
   0   3 -14-1894.57 1937.72   6
   0   3 -14-363.938 1821.41   3
   0  -3  13 3226.30 1475.25   2
   0   3 -13-867.620 1795.65   3
   0   3 -13 3543.76 1643.67   1
   0  -3  13 3463.68 1579.33   7
   0   3 -13 2170.02 1601.62   6
   0  -3  13 4573.93 1723.39   4
   0   3 -12 6304.44 1766.76   6
   0  -3  12 7116.16 1787.53   2
   0   3 -12 6692.56 1770.41   1
   0  -3  12 5563.94 1640.75   4
   0  -3  12 5172.02 1758.24   7
   0  -3  11 1532.91 1313.81   7
   0  -3  11-212.554 1233.50   2
   0   3 -11 1736.56 1462.30   3
   0   3 -11 1588.33 1296.36   1
   0  -3  11 1406.14 1306.80   4
   0   3 -11 2371.18 1461.70   6
   0   3 -10-1323.86 1345.25   6
   0  -3  10 2101.35 1186.70   2
   0   3 -10 1688.20 1635.28   3
   0  -3  10-32.8585 1115.47   7
   0   3 -10-120.276 1051.05   1
   0  -3  10 864.071 1158.76   4
   0  -3   9 17879.1 2039.73   2
   0   3  -9 18113.2 2045.03   6
   0   3  -9 15219.9 2150.26   3
   0  -3   9 19635.1 2119.60   7
   0  -3   9 19520.4 2108.88   4
   0   3  -9 23580.9 2346.77   1
   0   3  -8 8296.51 1374.21   1
   0   3  -8 5320.24 1379.31   3
   0  -3   8 9658.03 1439.38   2
   0  -3   8 9986.15 1522.02   7
   0  -3   8 10035.0 1461.93   4
   0   3  -8 10439.8 1573.51   6
   0   3  -7 8680.67 1510.61   3
   0   3  -7 9058.49 1396.60   6
   0   3  -7 7363.85 1209.26   1
   0  -3   7 7749.05 1199.27   2
   0  -3   7 8214.59 1130.50  10
   0  -3   7 8464.12 1280.89   4
   0  -3   7 7349.11 1258.18   7
   0  -3   6 6203.82 1003.90   2
   0  -3   6 6048.95 1037.75   7
   0  -3   6 6403.94 993.139  10
   0   3  -6 6497.28 1130.69   6
   0   3  -6 5825.74 993.738   1
   0  -3   6 6920.04 1089.07   4
   0   3  -6 7132.00 1224.99   3
   0   3  -5 227535. 5120.01   1
   0   3  -5 234004. 5559.42   6
   0  -3   5 234203. 4016.56  16
   0  -3   5 235941. 5098.09   2
   0  -3   5 242615. 5317.07  10
   0   3  -5 234491. 5582.21   3
   0  -3   5 231966. 5516.88   7
   0  -3   5 234339. 5148.38   4
   0  -3   4 11536.3 1037.84   2
   0  -3   4 10922.2 1100.88   7
   0  -3   4 12280.0 1258.24  10
   0  -3   4 13158.5 980.545  16
   0   3  -4 13812.0 1240.93   1
   0  -3   4 15192.2 1313.40   4
   0   3  -3 96749.6 3116.46   6
   0  -3   3 100139. 3216.22  10
   0  -3   3 99875.2 2780.18   2
   0  -3   3 99176.6 2738.97   4
   0  -3   3 100325. 2773.44  16
   0   3  -3 98904.0 2821.22   1
   0   3  -3 102678. 3012.72   3
   0  -3   3 98478.7 3168.12   7
   0  -3   2 125653. 2830.02  15
   0  -3   2 125586. 3041.16  10
   0   3  -2 124181. 2562.35   3
   0  -3   2 125365. 2841.73  16
   0  -3   2 124577. 2395.80   4
   0   3  -2 124835. 3013.29  13
   0  -3   2 125086. 2901.55   7
   0  -3   1 285297. 4992.00  15
   0  -3   1 268085. 4817.25  16
   0  -3   1 289959. 5066.57  10
   0   3  -1 274148. 5057.82  13
   0  -3   1 279514. 4611.40   7
   0  -3   0 8830.12 864.241  10
   0  -3   0 8442.56 889.779  16
   0  -3   0 8431.61 896.030  15
   0   3   0 7889.44 937.279  13
   0  -3  -1 162910. 4207.35   9
   0  -3  -1 162970. 4606.00  15
   0  -3  -1 163001. 4638.89  16
   0   3   1 162526. 4862.78  13
   0   3   2 49249.9 2296.42  12
   0  -3  -2 48890.0 2255.84  15
   0  -3  -2 47911.6 2171.88   9
   0  -3  -2 50213.3 2263.21  16
   0   3   2 50359.4 2352.65  13
   0   3   3 102376. 3458.20  12
   0  -3  -3 101267. 3071.55   8
   0  -3  -3 103268. 3409.94   9
   0  -3  -3 103286. 3327.20  16
   0  -3  -4 24127.6 1735.67  16
   0   3   4 27826.5 2016.29   5
   0  -3  -4 24176.9 1829.50   9
   0  -3  -4 23413.4 1678.00   8
   0  -3  -5 252807. 6031.84   9
   0  -3  -5 251275. 4851.61   1
   0  -3  -5 252684. 5717.89   8
   0   3   5 247958. 4746.46   2
   0   3   5 259736. 6008.54  12
   0   3   5 260352. 5870.44   5
   0  -3  -5 254827. 5477.80  16
   0   3   6 7074.66 1224.70  12
   0   3   6 5918.33 912.523   2
   0   3   6 6566.86 1161.84   5
   0  -3  -6 5321.21 1084.72   9
   0  -3  -6 5821.13 952.672  16
   0  -3  -6 5890.71 920.274   1
   0  -3  -6 5168.77 1021.45   8
   0  -3  -7 1578.57 867.979   9
   0  -3  -7 266.651 732.051   8
   0   3   7 1848.74 992.274   5
   0   3   7 2866.07 1015.90  12
   0   3   7 2941.90 867.130   2
   0  -3  -7 1277.91 680.019   1
   0   3   8 14336.8 1814.26   5
   0   3   8 14771.3 1806.31  12
   0   3   8 14786.1 1556.68   2
   0  -3  -8 12597.1 1728.84   9
   0  -3  -8 12928.6 1730.87   8
   0  -3  -8 14229.4 1593.11   1
   0  -3  -9 4666.88 1136.01   1
   0   3   9 5989.34 1457.41   5
   0  -3  -9 4669.71 1334.94   9
   0  -3  -9 5181.04 1348.12   8
   0   3   9 8376.82 1464.51   2
   0  -3 -10-351.784 896.600   1
   0  -3 -10-878.682 1089.74   9
   0   3  10-99.0442 1175.23   5
   0  -3 -10-1255.22 1104.05   8
   0   3  10-2908.57 1234.99   2
   0   3  11-241.367 1053.29   2
   0   3  11-338.338 1253.26   5
   0  -3 -11 1240.59 1245.39   8
   0  -3 -11 1534.87 1212.33   9
   0   3  12 4737.24 1738.71   5
   0  -3 -12 2287.76 1348.46   8
   0  -3 -13-727.318 1382.94   8
   0  -3 -14 1521.97 1436.20   8
   0   4 -14 1014.15 2200.64   3
   0  -4  14 2608.42 1673.93   2
   0   4 -14 5031.32 1979.92   6
   0  -4  14 4843.27 1949.12   7
   0  -4  13 6872.45 1823.59   2
   0  -4  13 4990.62 1889.94   7
   0   4 -13 10424.4 2348.65   6
   0  -4  13 9013.41 2185.62   4
   0   4 -13 9603.05 2191.17   1
   0  -4  12 6409.85 1713.38   2
   0   4 -12 8480.36 2108.60   6
   0  -4  12 6329.18 1936.66   7
   0  -4  12 4850.19 1676.55   4
   0   4 -12 5608.05 1704.36   1
   0   4 -11 5860.66 1831.71   6
   0   4 -11 4934.60 1687.82   1
   0  -4  11 4711.40 1679.93   2
   0  -4  11 3421.01 1441.89   4
   0   4 -11-893.711 1508.39   3
   0  -4  11 3780.26 1634.81   7
   0   4 -10-243.742 1370.37   3
   0  -4  10 969.901 1180.00   4
   0  -4  10 1033.51 1168.35   7
   0   4 -10-884.713 1363.26   6
   0   4 -10 739.839 1020.45   1
   0  -4  10 1619.30 1140.61   2
   0   4  -9 5466.20 1825.52   3
   0  -4   9 9162.66 1825.38   7
   0  -4   9 9068.41 1674.24   2
   0  -4   9 9753.42 1825.72   4
   0   4  -9 9676.83 1814.70   6
   0   4  -9 8422.56 1678.04   1
   0  -4   8 3323.63 1153.73   2
   0   4  -8 2829.49 1065.02   1
   0   4  -8 3659.70 1398.72   6
   0   4  -8 1586.24 1109.80   3
   0  -4   8 5660.85 1211.52  10
   0  -4   8 4106.57 1161.92   7
   0  -4   8 2786.58 1143.35   4
   0   4  -7 31945.1 2530.06   6
   0  -4   7 31075.7 2312.38   4
   0   4  -7 30851.9 2356.29   1
   0  -4   7 29681.7 2226.90   2
   0  -4   7 29402.6 2273.77  10
   0  -4   7 33719.7 2592.28   7
   0   4  -6 51601.4 2802.39   1
   0   4  -6 59147.2 3285.23   6
   0  -4   6 54179.4 2939.78  10
   0  -4   6 60912.6 2968.88   2
   0  -4   6 61397.2 2972.59   4
   0  -4   6 62437.3 3328.35   7
   0   4  -6 60264.0 3236.83   3
   0  -4   5 14221.6 1533.54  10
   0   4  -5 14926.7 1423.49   1
   0   4  -5 15775.9 1541.50   3
   0   4  -5 15800.3 1635.65   6
   0  -4   5 15345.6 1442.73   4
   0  -4   5 14317.2 1393.24   2
   0  -4   5 14069.1 1560.14   7
   0  -4   4 1657.58 790.242   7
   0   4  -4 462.808 681.661   6
   0  -4   4 1490.73 696.099  10
   0   4  -4 1822.07 726.589   3
   0  -4   4 2042.26 607.604   2
   0  -4   4 1737.90 672.800   4
   0  -4   4 1745.96 607.123  16
   0   4  -3 9420.84 1175.70   6
   0  -4   3 7965.34 1094.06  10
   0  -4   3 8922.23 1068.72  16
   0   4  -3 9354.57 1039.49   3
   0  -4   3 9872.73 966.977   4
   0  -4   3 9669.95 1174.71   7
   0  -4   2 23409.2 1779.55  10
   0  -4   2 24691.0 1723.75   7
   0  -4   2 24163.4 1314.24   4
   0   4  -2 26132.4 1501.59   3
   0  -4   2 25993.4 1784.03  16
   0  -4   1 29884.3 1786.74  10
   0  -4   1 29387.4 1723.70  16
   0  -4   0 120293. 3916.61   9
   0  -4   0 120220. 4657.64  16
   0  -4   0 119810. 4310.13  10
   0  -4  -1 46370.7 2312.22   9
   0  -4  -1 50843.5 2671.81  16
   0  -4  -2 30588.8 1937.64   9
   0  -4  -2 30259.8 2040.82  16
   0  -4  -3 9805.74 1238.57   9
   0  -4  -3 7553.50 986.849   8
   0  -4  -3 9101.83 1214.76  16
   0  -4  -4 3386.69 881.379   9
   0  -4  -4 3701.74 835.266   8
   0  -4  -4 4009.84 889.400  16
   0   4   4 4573.71 1023.99  12
   0   4   5 5325.75 1213.81  12
   0  -4  -5 2464.03 886.956   9
   0  -4  -5 3086.42 865.971   8
   0  -4  -5 4830.79 1042.14  16
   0   4   6 78583.5 3896.08  12
   0  -4  -6 74774.9 3800.88   9
   0  -4  -6 73842.0 3553.78   8
   0  -4  -6 71929.9 3457.37  16
   0  -4  -7 32858.7 2432.04  16
   0  -4  -7 30704.0 2633.56   9
   0  -4  -7 33084.7 2573.96   8
   0  -4  -8 3951.02 1189.79   8
   0  -4  -8 3947.61 1218.64   9
   0  -4  -9-1552.83 1316.88   9
   0  -4  -9-173.285 1000.59   8
   0  -4 -10 9686.44 2531.99   9
   0  -4 -10-1329.17 2478.45   8
   0  -4 -11 5008.48 1940.09   9
   0  -4 -11 6695.44 2135.71   8
   0  -4 -12 1020.22 1163.76   9
   0  -4 -12 1208.27 1422.07   8
   0   5 -13 840.886 2052.12   3
   0  -5  13-419.559 1370.64   7
   0  -5  13 1662.36 1542.19   2
   0   5 -13-1524.86 1742.83   1
   0  -5  13 18.2960 1439.01   4
   0  -5  12-61.9671 1490.11   7
   0   5 -12-2390.31 1974.73   3
   0   5 -12-420.773 1589.68   6
   0  -5  12-732.972 1406.83   4
   0  -5  12-2012.32 1467.23   2
   0   5 -12-1025.98 1363.11   1
   0   5 -11-847.222 1242.80   1
   0   5 -11-385.773 1687.78   3
   0  -5  11-547.491 1354.56   7
   0   5 -11 671.660 1546.65   6
   0  -5  11 1373.83 1251.67   2
   0  -5  11-416.392 1272.45   4
   0   5 -10 469.279 1619.28   3
   0  -5  10 77.1884 1188.63   7
   0   5 -10-1942.56 1693.44   6
   0  -5  10-311.365 1102.21   2
   0   5 -10-3024.26 1593.70   1
   0  -5  10-2608.97 1312.98   4
   0   5  -9 1003.48 1332.09   3
   0   5  -9 702.630 1306.54   6
   0  -5   9 180.645 1087.04   7
   0  -5   9-1361.70 1093.10   2
   0   5  -9 56.0285 1004.91   1
   0  -5   9 45.2981 992.753   4
   0   5  -8 9814.21 1812.50   6
   0  -5   8 11985.8 1699.92   2
   0  -5   8 13001.0 1838.36   4
   0  -5   8 15867.1 1997.96  10
   0  -5   8 13702.4 1986.98   7
   0   5  -7 3994.52 1407.56   6
   0   5  -7 1161.92 1012.73   3
   0  -5   7 5246.92 1273.40  10
   0  -5   7 5447.03 1187.92   2
   0  -5   7 5388.74 1318.24   7
   0  -5   7 3687.27 1069.36   4
   0   5  -6 13205.9 1810.05   6
   0  -5   6 11451.5 1669.65   7
   0  -5   6 13257.3 1527.12   4
   0   5  -6 12559.1 1750.46   3
   0  -5   6 12123.7 1618.18  10
   0   5  -5 3928.54 1176.71   6
   0  -5   5 3345.42 1080.54  10
   0  -5   5 2936.08 977.419   7
   0   5  -4 9341.13 1418.92   6
   0  -5   4 7049.09 1257.04  10
   0  -5   4 9130.46 1346.71   7
   0  -5   4 8685.63 1184.29  16
   0   5  -3 103913. 3995.20   6
   0  -5   3 95843.1 3830.70   7
   0  -5   3 99537.3 4091.44  10
   0  -5   3 101126. 3832.75  16
   0  -5   2 19185.3 1700.54  16
   0   5  -2 22495.1 1766.27   6
   0  -5   2 20924.5 1843.49  10
   0  -5   1 16266.2 1409.42   9
   0  -5   1 18616.0 1779.79  16
   0  -5   0-76.1868 558.633  16
   0  -5   0 382.333 442.604   9
   0  -5  -1 15481.6 1509.46   9
   0  -5  -1 19022.4 1832.64  16
   0  -5  -2 7318.18 1152.48   9
   0  -5  -2 7451.16 1226.10  16
   0  -5  -3 111127. 3570.71   9
   0  -5  -3 111731. 3704.86  16
   0  -5  -4 25.8512 8.72561  16
   0  -5  -4 17.8237 8.24388   9
   0  -5  -4 19.1313 7.51555   8
   0  -5  -5 1524.73 820.449  16
   0  -5  -5 1283.61 863.172   9
   0  -5  -5 779.641 694.241   8
   0  -5  -6 190.401 769.894   9
   0  -5  -6 1196.69 834.696   8
   0  -5  -6 1040.32 805.595  16
   0  -5  -7 9813.24 1159.80  16
   0  -5  -7 9724.67 1352.31   9
   0  -5  -7 9972.40 1029.47   8
   0  -5  -8 1477.61 1142.42   9
   0  -5  -8 383.891 938.129   8
   0  -6  11 2012.15 1666.66   7
   0   6 -11 2048.08 1613.03   6
   0  -6  10 2209.03 1490.04   7
   0   6 -10 3308.02 1868.54   6
   0  -6   9 7809.84 1865.53   7
   0   6  -9 10689.5 2110.36   6
   0  -6   8 7535.96 1651.48   7
   0   6  -8 9605.54 2019.90   6
   0   6  -7 49.9196 1260.37   6
   0  -6   7 139.216 1023.11   7
   0  -6   6 15567.8 2079.17   7
   0   6  -6 12517.2 1995.09   6
   0   6  -5-365.173 1130.56   6
   0  -6   4 34534.0 2568.80  16
   0   6  -4 34990.1 2760.91   6
   0  -6   3 4683.82 1136.32  16
   0   6  -3 5602.07 1339.39   6
   0  -6   2 39424.1 2726.84  16
   0   6  -2 38736.6 2626.48   6
   0   6  -1 3863.69 999.054   6
   0  -6   1 4046.14 1081.21  16
   0  -6   0 101412. 4955.25  16
   0   7 -10 1410.37 1751.54   6
   0   7  -9 3215.92 1957.73   6
   0   7  -8 725.476 1458.07   6
   0   7  -7 1532.11 1467.51   6
   0   7  -6 1736.40 1353.23   6
  -1   3  -9 3343.32 1299.74   6
  -1   3  -9 235.954 1104.95   3
   1  -3   9 2672.60 1007.39   2
  -1   3 -10 17776.0 2247.06   6
   1  -3  10 22314.7 2508.95   4
   1  -3  10 20269.7 2299.22   2
  -1   3 -11 5648.57 1568.48   6
   1  -3  11 4181.51 1384.22   2
   1  -3  11 5699.91 1580.18   4
   1  -3  12-795.260 1229.31   2
  -1   3 -12 2384.11 1758.82   3
  -1   3 -12 1286.05 1503.92   6
   1  -3  12 2277.70 1575.11   4
  -1   3 -13 385.993 1731.33   3
   1  -3  13 180.392 1159.52   2
   1  -3  13 251.625 1364.78   4
  -1   3 -14 33.2933 1947.11   3
  -1   2  -7 1850.25 973.148   3
   1  -2   7 4232.24 994.459   2
   1  -2   7 3922.00 1045.12   4
  -1   2  -8 54915.1 3084.86   6
   1  -2   8 55612.1 3019.85   5
   1  -2   8 60247.8 3438.63   4
   1  -2   8 56317.2 3268.33   2
  -1   2  -9 3451.11 1244.28   6
   1  -2   9 4926.77 1223.02   5
  -1   2  -9 2909.88 1401.43   3
   1  -2   9 4044.96 1170.53   2
   1  -2   9 5124.51 1360.54   4
  -1   2  -9 3307.25 1142.91   1
   1  -2  10 18629.7 2071.02   5
  -1   2 -10 16409.9 2019.05   6
  -1   2 -10 18127.5 2235.64   1
   1  -2  10 15068.1 2103.96   4
   1  -2  10 16037.8 2090.82   2
  -1   2 -11 1481.04 1590.42   3
   1  -2  11 3096.82 1296.25   2
   1  -2  11 3372.27 1367.12   5
  -1   2 -11 5393.88 1521.73   1
   1  -2  11 3676.63 1562.00   4
   1  -2  12 14821.5 2359.76   4
   1  -2  12 15326.1 2241.40   5
  -1   2 -12 14348.7 2288.10   1
   1  -2  12 11028.3 2054.77   2
  -1   2 -13 1934.10 1877.37   3
   1  -2  13 2598.02 1337.17   2
   1  -2  13 1692.48 1472.50   4
  -1   2 -13 3670.17 1562.45   1
  -1   2 -14 4344.98 2465.17   3
   1  -2  14 2527.35 1520.52   2
   1  -2  14 3146.81 1745.26   4
   1  -1   5 25600.9 1835.58   2
   1  -1   5 27304.3 1965.42   4
  -1   1  -6 306.650 725.818   3
   1  -1   6 1805.76 800.915   4
  -1   1  -7 1989.56 795.162   1
  -1   1  -7-651.899 853.260   3
   1  -1   7 3654.13 950.325   2
   1  -1   7 2586.32 887.510   4
   1  -1   7 3889.20 1004.32   5
  -1   1  -7 3177.78 982.765   6
  -1   1  -7-387.626 688.349   8
  -1   1  -8 53524.6 2825.14   6
  -1   1  -8 51342.4 3169.34   1
   1  -1   8 48350.1 3045.44   4
   1  -1   8 54725.0 3096.93   2
   1  -1   8 49658.0 2921.95   5
  -1   1  -8 50886.4 3099.87   8
  -1   1  -9 20322.6 1892.10   6
   1  -1   9 18103.7 1964.64   5
  -1   1  -9 20591.3 2268.29   8
   1  -1   9 18144.7 1968.87   2
  -1   1  -9 19304.2 2089.56   1
   1  -1   9 15945.4 1950.95   4
  -1   1 -10 2556.93 1260.44   1
   1  -1  10 1901.36 1150.93   2
  -1   1 -10 3284.74 1338.45   8
   1  -1  10 3589.66 1419.43   5
   1  -1  10 3882.38 1457.24   4
  -1   1 -11 12631.0 2100.26   1
   1  -1  11 9769.51 1776.80   5
  -1   1 -11 11174.4 1956.26   8
   1  -1  11 10836.5 1952.43   4
   1  -1  11 7925.90 1584.79   2
  -1   1 -12 969.866 1172.09   1
  -1   1 -12 4684.84 2050.21   3
   1  -1  12-229.087 1242.19   5
  -1   1 -12-31.4081 1306.70   8
   1  -1  12-351.442 1312.94   4
   1  -1  12-896.816 1260.33   2
   1  -1  13-370.305 1185.88   2
  -1   1 -13 203.889 1842.49   3
  -1   1 -13 410.905 1205.94   1
   1  -1  13-1402.85 1619.26   5
   1  -1  13 1006.96 1427.74   4
  -1   1 -13 477.456 1309.58   8
  -1   1 -14 1335.86 1822.78   3
   1  -1  14 4356.04 1658.37   5
   1  -1  14 3151.26 1593.86   2
   1  -1  14 4152.57 1807.95   4
  -1   1 -14 5097.75 1702.63   1
  -1   1 -14 5016.68 1913.47   8
  -1   1 -15 237.309 1569.36   8
   1   0 -11-323.467 833.098   8
  -1   0  11-1095.69 1012.61   2
   1   0 -11-1078.38 879.957   1
  -1   0  11 503.452 913.580   7
   1   0 -10 28232.9 2031.22   1
   1   0 -10 27589.9 2468.86   8
   1   0  -9 348.597 606.214   8
   1   0  -9 849.090 724.703   1
  -1   0   9 1639.96 818.741   7
  -1   0   9 1808.88 904.706   2
  -1   0   8 3499.26 994.469   2
  -1   0  -4 169529. 4277.50   8
  -1   0  -5 105084. 3528.39   1
  -1   0  -5 103506. 3550.73   8
   1   0   5 102261. 3414.49   4
   1   0   5 102233. 3353.08   2
  -1   0  -6 665.633 503.765   1
   1   0   6 880.133 567.769   2
  -1   0  -6 707.520 742.429   3
   1   0   6 1037.92 644.721   5
  -1   0  -6 1177.52 626.517   8
   1   0   6 1390.21 649.146   4
  -1   0  -7 2795.80 859.043   8
  -1   0  -7 3519.18 764.652   6
   1   0   7 2675.45 816.028   2
  -1   0  -7 2539.88 954.218   3
   1   0   7 2813.82 928.703   5
   1   0   7 2630.23 847.086   4
  -1   0  -7 2782.72 779.993   1
  -1   0  -8 10927.2 1539.20   8
   1   0   8 13616.1 1652.58   5
  -1   0  -8 9508.97 1537.65   3
   1   0   8 11311.7 1550.92   4
   1   0   8 11942.3 1523.58   2
  -1   0  -8 10337.9 1460.25   1
  -1   0  -9 555.028 766.100   1
   1   0   9 517.169 856.125   2
  -1   0  -9 1362.84 1125.05   3
   1   0   9-854.716 940.751   5
  -1   0  -9 1456.56 1150.91   8
   1   0   9 423.883 831.791   4
   1   0  10 4293.35 1352.08   4
  -1   0 -10 5100.46 1392.05   1
   1   0  10 4694.44 1247.07   2
  -1   0 -10-668.106 1406.29   3
   1   0  10 3777.96 1347.71   5
  -1   0 -10 4695.69 1367.28   8
  -1   0 -11 371.677 1481.12   3
   1   0  11 574.563 969.530   2
  -1   0 -11 1139.85 1030.06   1
   1   0  11 44.3021 1176.89   5
  -1   0 -11 192.545 1072.66   8
   1   0  11-11.3037 1130.43   4
   1   0  12 3950.36 1403.00   2
  -1   0 -12 2359.08 1810.97   3
  -1   0 -12 7528.74 1820.95   1
   1   0  12 7255.41 1846.10   5
  -1   0 -12 6814.29 1919.09   8
   1   0  12 5534.02 1606.84   4
  -1   0 -13-1840.70 1860.47   3
   1   0  13 2395.97 1392.85   2
   1   0  13 3523.94 1602.66   5
  -1   0 -13 4783.19 1783.43   8
   1   0  13 2102.88 1391.76   4
  -1   0 -13 4591.83 1667.83   1
  -1   0 -14 4058.59 2108.75   3
   1   0  14-596.223 1394.01   2
  -1   0 -14 3613.09 1642.83   1
   1   0  14-3103.22 1879.21   5
  -1   0 -14 1090.03 1489.67   8
   1   0  14 1165.91 1575.41   4
   1   1 -14 735.379 1144.57   1
  -1  -1  14-260.832 1277.06   2
   1   1 -13 6480.99 1723.41   1
  -1  -1  13 10238.1 2037.69   2
   1   1 -12 882.439 1048.48   1
  -1  -1  12-866.569 2580.20   7
   1   1 -11-1925.49 1319.76   1
  -1  -1  11-1374.42 1525.00   7
   1   1 -11-2493.77 1257.76   8
  -1  -1  10-987.270 1007.09   2
   1   1 -10 75.3855 798.753   1
   1   1 -10 302.234 761.697   8
   1   1 -10-701.823 1123.21   3
  -1  -1  10-298.714 857.704   7
   1   1  -9 8865.84 1406.69   1
   1   1  -9 7712.25 1504.27   3
  -1  -1   9 13561.3 1764.78   2
   1   1  -9 9364.38 1359.71   8
  -1  -1   9 12422.2 1609.84   7
   1   1  -8 9545.47 1489.74   3
  -1  -1   8 11758.6 1512.88   2
   1   1  -8 8481.58 1325.15   1
   1   1  -8 8307.70 1159.08   8
  -1  -1   8 10882.7 1415.95   7
  -1  -1   7 121954. 2765.27  10
  -1  -1   7 121759. 3406.00   2
   1   1  -7 121800. 3383.91   1
   1   1  -7 122324. 2840.26   8
   1   1  -7 122214. 3546.52   3
  -1  -1   7 122353. 3332.91   7
  -1  -1   6 14239.3 1430.71   7
  -1  -1   6 10936.4 1162.53  10
  -1  -1   6 14496.7 1419.32   2
   1   1  -6 12751.0 1325.12   1
  -1  -1   5 79876.6 2393.78   7
  -1  -1  -3 58897.9 2399.58   9
  -1  -1  -3 60714.2 2365.25   8
  -1  -1  -4 2507.65 567.184  15
  -1  -1  -4 2007.58 578.192   3
  -1  -1  -4 2344.83 656.810   9
   1   1   4 3324.32 692.394   5
  -1  -1  -4 2468.93 641.017   8
   1   1   4 3148.61 639.333   2
   1   1   4 3544.98 656.933   4
  -1  -1  -5 57512.9 2778.03   3
  -1  -1  -5 47357.7 2354.22   1
   1   1   5 54767.1 2666.67   5
  -1  -1  -5 48784.0 2587.26   9
  -1  -1  -5 42578.9 1990.74  15
  -1  -1  -5 47023.8 2553.41   8
   1   1   5 49384.9 2304.38   4
   1   1   5 44063.3 2252.73   2
  -1  -1  -6 18990.7 1587.21   1
   1   1   6 16105.1 1545.99   5
  -1  -1  -6 20600.6 1727.67   3
  -1  -1  -6 21065.0 1778.51   8
   1   1   6 19973.0 1560.20   4
   1   1   6 17549.4 1477.15   2
  -1  -1  -6 19525.8 1699.48   9
  -1  -1  -7 19743.4 1719.28   1
   1   1   7 18526.6 1741.60   5
  -1  -1  -7 20940.9 1839.31   9
  -1  -1  -7 21248.8 1927.72   8
   1   1   7 19836.5 1688.87   4
   1   1   7 18198.7 1604.64   2
   1   1   8 45966.3 2897.87   5
  -1  -1  -8 45087.0 2823.25   9
  -1  -1  -8 48008.8 3064.51   8
   1   1   8 46089.6 2702.38   4
   1   1   8 48649.8 2781.22   2
  -1  -1  -8 47064.4 2838.76   1
  -1  -1  -9 10595.7 1755.64   3
   1   1   9 18181.6 2035.05   5
  -1  -1  -9 15807.1 1796.73   9
   1   1   9 14215.7 1703.62   4
  -1  -1  -9 14841.8 1901.84   8
   1   1   9 14617.7 1735.45   2
  -1  -1  -9 16055.2 1861.86   1
  -1  -1 -10 3060.51 1528.07   3
   1   1  10 3380.88 1429.07   5
  -1  -1 -10 3700.29 1472.59   8
  -1  -1 -10 5221.68 1484.60   1
   1   1  10 3911.51 1313.72   2
   1   1  10 6661.48 1490.21   4
   1   1  11-952.267 1184.63   4
   1   1  11-361.220 1040.65   2
  -1  -1 -11 214.301 1269.98   3
   1   1  11 1314.77 1128.07   5
  -1  -1 -11 1266.40 1179.02   8
  -1  -1 -11-956.559 1081.50   1
   1   1  12 6904.50 1597.46   2
  -1  -1 -12 2374.10 1839.76   3
   1   1  12 9493.99 2091.38   5
  -1  -1 -12 7944.21 2034.56   8
   1   1  12 8415.87 1840.60   4
  -1  -1 -12 8874.06 1925.32   1
  -1  -1 -13 1760.86 1663.94   3
   1   1  13 6541.65 1665.80   2
   1   1  13 10431.4 2254.54   5
  -1  -1 -13 5793.77 1918.24   1
  -1  -1 -13 9037.97 1967.37   8
   1   1  13 8350.21 2006.92   4
   1   1  14 3100.11 1951.76   4
   1   1  14-2453.38 1553.61   2
   1   1  14 985.232 1644.04   5
  -1  -1 -14-6527.34 3781.13   1
  -1  -1 -14-4817.41 2842.47   8
  -1  -1 -15 5684.38 2889.54   3
  -1  -1 -15-2029.98 1884.60   1
   1   2 -14 4386.83 1680.21   1
  -1  -2  14 1421.25 1390.47   7
  -1  -2  14-864.463 1496.86   2
   1   2 -13-492.846 1585.80   3
   1   2 -13 1414.19 1240.55   1
  -1  -2  13 2524.23 1525.49   7
  -1  -2  13 3038.16 1403.32   2
  -1  -2  12 6694.29 1802.09   2
   1   2 -12 4557.23 1482.60   1
  -1  -2  12 9275.89 1986.01   7
   1   2 -11 1640.08 1436.93   3
   1   2 -11 3811.43 1480.71   6
   1   2 -11 3188.12 1225.60   1
  -1  -2  11 3311.55 1290.97   2
  -1  -2  11 3305.20 1312.54   7
   1   2 -10 26347.7 2610.68   6
   1   2 -10 16575.9 2204.95   3
  -1  -2  10 22797.5 2354.02   2
  -1  -2  10 24068.5 2544.26   4
   1   2 -10 21235.1 2312.19   1
  -1  -2  10 20977.9 2388.52   7
   1   2  -9 4434.68 1422.33   3
   1   2  -9 4761.16 1365.10   6
   1   2  -9 4777.66 1188.36   1
  -1  -2   9 4742.48 1258.90   4
  -1  -2   9 3619.94 1078.57   7
  -1  -2   9 3625.79 1128.34   2
   1   2  -8 9586.34 1574.28   1
   1   2  -7 40394.8 2697.61   3
  -1  -2   7 40206.7 2572.63   7
  -1  -2   7 39843.4 2333.25  10
  -1  -2   7 44155.8 2618.22   2
  -1  -2   7 39769.6 2581.42   4
   1   2  -7 35911.9 2419.21   1
   1   2  -7 43892.0 2807.25   6
   1   2  -6 3083.10 888.377   3
   1   2  -6 2576.83 877.416   6
   1   2  -6 3050.16 815.634  11
   1   2  -6 2592.43 752.049   1
  -1  -2   6 3784.57 826.985  10
   1   2  -6 3143.28 650.167   8
  -1  -2   6 3143.61 817.380   4
  -1  -2   6 3443.54 836.643   7
  -1  -2   6 2643.98 719.026   2
   1   2  -5 25253.8 1755.52  11
  -1  -2   5 25016.3 1767.01  10
   1   2  -5 22999.9 1698.02   3
  -1  -2   5 26280.0 1748.71   2
   1   2  -5 25274.8 1740.75   1
   1   2  -5 22525.1 1273.23   8
   1   2  -5 23408.8 1797.53   6
  -1  -2   5 22895.5 1432.12  15
  -1  -2   5 23721.8 1780.45   7
   1   2  -4 64255.6 2643.17  11
  -1  -2   4 60893.1 2601.27   7
   1   2  -4 62049.6 2665.40   6
  -1  -2   4 61297.4 2615.20  10
  -1  -2   4 59781.0 2319.19   2
   1   2  -4 60964.6 2369.36   1
  -1  -2   4 59742.7 2242.48  15
   1   2  -3 410.992 438.015  11
  -1  -2   3 553.240 360.459  10
   1   2  -3-79.1809 426.652   6
  -1  -2   3 583.611 409.389   7
  -1  -2   3 648.140 331.515  15
   1   2  -2 55379.7 2286.23  11
  -1  -2   2 54168.4 2293.21  10
  -1  -2   2 54749.2 2137.17   7
  -1  -2   2 56701.1 2180.37  15
   1   2  -2 52398.0 2076.64   6
   1   2  -1 1399.69 112.246  11
  -1  -2   1 1412.31 115.342  10
  -1  -2   1 1458.27 109.870  16
  -1  -2   1 1469.70 114.272  15
   1   2   0 133683. 2453.22  11
  -1  -2   0 133136. 2512.99  10
  -1  -2   0 132793. 2244.55   9
  -1  -2   0 132541. 2747.77  16
   1   2   1 4382.73 672.336  11
  -1  -2  -1 3458.97 571.139  10
  -1  -2  -1 3721.72 650.722   9
  -1  -2  -1 3335.53 597.314  16
  -1  -2  -1 3425.43 633.165  15
   1   2   2 424.844 556.388  14
   1   2   3 45801.5 2011.52   5
  -1  -2  -3 49807.6 2335.49   9
  -1  -2  -3 49026.8 2133.69   8
  -1  -2  -3 44931.4 2117.70  16
  -1  -2  -3 44749.2 2166.21  15
   1   2   4 14149.1 1213.82   5
  -1  -2  -4 14517.4 1240.07   8
   1   2   4 15061.2 1051.80   4
   1   2   4 16810.7 1111.16   2
   1   2   5 5484.15 762.506   2
  -1  -2  -5 6609.97 891.848   3
  -1  -2  -5 5596.21 956.894   9
   1   2   5 6321.73 1002.97   5
   1   2   5 6645.54 814.133   4
  -1  -2  -5 6351.43 969.240   8
  -1  -2  -5 5484.82 814.672  16
  -1  -2  -5 6157.08 858.145  15
  -1  -2  -5 6177.98 833.917   1
   1   2   6 33952.7 2218.82   5
  -1  -2  -6 29724.3 1861.60  16
  -1  -2  -6 31115.2 2266.41   9
  -1  -2  -6 31647.4 1898.63  15
  -1  -2  -6 31987.0 2218.03   8
   1   2   6 32378.3 1872.38   4
   1   2   6 32439.2 1927.03   2
  -1  -2  -6 32547.9 2003.90   1
  -1  -2  -6 35876.2 2126.10   3
   1   2   7 12134.2 1547.22   5
  -1  -2  -7 14401.5 1672.10   9
   1   2   7 12987.6 1340.08   4
  -1  -2  -7 13492.6 1643.29   8
   1   2   7 12092.3 1326.85   2
  -1  -2  -7 13323.2 1424.29   1
  -1  -2  -8 5308.77 1258.22   3
  -1  -2  -8 7239.29 1430.43   9
   1   2   8 8695.51 1359.13   4
  -1  -2  -8 6481.29 1229.09   1
  -1  -2  -8 5628.53 1271.21   8
   1   2   9 5580.65 1353.00  12
   1   2   9 4911.70 1159.75   2
  -1  -2  -9 3442.77 1303.16   3
   1   2   9 4870.39 1363.15   5
  -1  -2  -9 4947.97 1311.68   9
  -1  -2  -9 6097.18 1286.38   1
  -1  -2  -9 5258.25 1331.40   8
   1   2   9 5622.28 1200.18   4
   1   2  10 1218.08 973.606   4
   1   2  10 2143.85 1170.93  12
   1   2  10-774.091 1071.64   2
  -1  -2 -10-722.724 1279.11   3
   1   2  10 1076.36 1151.15   5
  -1  -2 -10 888.427 1012.49   9
  -1  -2 -10 1969.98 928.787   1
  -1  -2 -10 1849.28 1186.91   8
   1   2  11 13769.1 2149.76   5
   1   2  11 16205.8 2090.48   4
  -1  -2 -11 18398.6 2477.42   8
   1   2  11 14921.3 1989.96   2
   1   2  12 1193.52 1447.22   5
  -1  -2 -12 2925.45 1608.50   8
   1   2  13 3391.45 1826.37   5
  -1  -2 -13 4482.10 1811.67   8
   1   2  14 14259.4 2685.67   5
  -1  -2 -14 5718.79 2065.72   8
   1   3 -14-254.547 1641.38   3
   1   3 -14 3832.95 1738.71   1
  -1  -3  14 2625.94 1819.01   7
  -1  -3  14 1948.18 1526.34   2
  -1  -3  13 7454.72 1978.79   2
   1   3 -13 151.955 1536.52   3
   1   3 -13 7783.76 2193.10   6
   1   3 -13 4715.53 1720.88   1
  -1  -3  13 7176.53 2089.59   7
   1   3 -12-347.860 1383.75   3
   1   3 -12-548.567 1425.59   6
  -1  -3  12-345.332 1249.35   4
   1   3 -12 443.042 1153.17   1
  -1  -3  12 879.932 1354.75   7
  -1  -3  12-272.560 1123.85   2
   1   3 -11 352.490 1292.19   3
  -1  -3  11-559.644 1009.43   2
   1   3 -11 2106.91 1504.04   6
   1   3 -11-1246.30 1161.25   1
  -1  -3  11 857.910 1220.24   4
  -1  -3  11-597.769 1269.85   7
   1   3 -10 1087.97 1228.09   6
   1   3 -10 523.376 1172.31   3
   1   3 -10 582.639 1007.00   1
  -1  -3  10-66.5789 1027.34   4
  -1  -3  10-87.9537 1030.08   7
  -1  -3  10 1796.03 1109.63   2
   1   3  -9 2307.08 1194.31   3
  -1  -3   9 4598.24 1369.51   7
  -1  -3   9 3647.97 1154.35   2
   1   3  -9 1604.76 1216.81   6
   1   3  -9 4470.78 1246.47   1
  -1  -3   9 3241.69 1216.43   4
   1   3  -8-769.427 1026.11   3
   1   3  -8 41.4361 999.231   6
   1   3  -8 306.161 901.464  11
  -1  -3   8 723.129 730.541  10
   1   3  -8 562.268 732.382   1
  -1  -3   8 199.337 826.486   4
  -1  -3   8-923.764 861.768   2
  -1  -3   8 662.873 820.467   7
   1   3  -7 27228.3 2450.65   6
  -1  -3   7 26509.5 2146.63  10
  -1  -3   7 27043.2 2133.50   2
  -1  -3   7 27618.0 2204.91   4
  -1  -3   7 27479.2 2306.94   7
   1   3  -6 3792.75 1016.61   6
   1   3  -6 4710.17 1043.40   3
  -1  -3   6 5115.73 1056.52   7
   1   3  -6 4554.97 1034.34  11
   1   3  -6 3817.19 864.261   1
  -1  -3   6 5024.84 1061.13  10
  -1  -3   6 5382.81 1046.03   4
  -1  -3   6 5307.67 964.897   2
   1   3  -5 66912.7 3084.12   6
   1   3  -5 74561.6 3204.40  11
  -1  -3   5 68495.2 3057.80  10
  -1  -3   5 68841.2 2736.11   2
  -1  -3   5 66788.8 2797.49   4
   1   3  -5 66100.0 2741.96   1
  -1  -3   5 68616.3 3083.99   7
  -1  -3   5 66406.1 2572.41  15
   1   3  -5 70477.6 2959.93   3
  -1  -3   4 37262.3 2154.98   7
   1   3  -4 37148.3 2239.38  11
   1   3  -4 38473.0 2219.03   6
  -1  -3   4 36342.5 2202.14  10
  -1  -3   4 37400.1 1979.18  15
  -1  -3   4 40051.8 1901.93   2
  -1  -3   4 37462.2 1929.88   4
   1   3  -4 34284.3 1820.73   1
  -1  -3   4 38256.0 1918.38  16
   1   3  -4 36214.4 1944.57   3
  -1  -3   3 4069.36 907.126   7
  -1  -3   3 6113.61 1147.23  10
  -1  -3   3 5011.64 791.193   2
  -1  -3   3 5102.11 892.581  16
  -1  -3   3 7206.95 1073.29  15
   1   3  -2 2666.57 628.575   6
  -1  -3   2 3225.62 667.735   7
   1   3  -2 3509.96 833.983  11
  -1  -3   2 3416.71 731.974  10
  -1  -3   2 3086.29 674.018  16
  -1  -3   2 3377.08 717.785  15
   1   3  -1 150369. 4014.00  11
  -1  -3   1 156008. 4119.87  10
  -1  -3   1 149417. 3476.83   9
  -1  -3   1 147948. 3986.51  16
  -1  -3   1 151083. 3414.87   7
   1   3  -1 153548. 3505.73   6
  -1  -3   1 157688. 4202.18  15
   1   3   0 1750.07 503.265  11
  -1  -3   0 1962.76 563.006  10
  -1  -3   0 1932.54 415.324  16
  -1  -3   0 1884.96 586.677   9
   1   3   0 1852.68 512.232   6
  -1  -3   0 1892.27 432.848  15
  -1  -3  -1 80290.0 3022.98   9
   1   3   2 5954.08 846.037  14
   1   3   3-741.144 1419.41  14
   1   3   3 5029.50 641.810  11
  -1  -3  -3 16665.0 1312.22  10
  -1  -3  -3 13648.8 1557.44   9
   1   3   3 1933.72 806.701   5
  -1  -3  -3 13448.7 1372.64   8
  -1  -3  -3 14080.0 1467.70  15
  -1  -3  -3 9512.10 1287.60  16
   1   3   4 29355.5 1871.35   5
  -1  -3  -4 30935.7 2135.09   9
  -1  -3  -4 35336.1 2082.96   8
  -1  -3  -4 31970.7 2044.73  16
  -1  -3  -4 31947.0 2093.69  15
   1   3   5 16245.8 1572.47   5
  -1  -3  -5 14965.2 1607.68   9
  -1  -3  -5 15620.5 1562.62   8
  -1  -3  -5 15574.1 1521.34  16
  -1  -3  -5 15760.2 1495.90  15
   1   3   6 45365.3 2688.39   5
  -1  -3  -6 42523.5 2801.41   9
  -1  -3  -6 37479.4 2543.09   8
  -1  -3  -6 42044.5 2449.56  16
  -1  -3  -6 45823.6 2548.01  15
   1   3   7 3066.04 1089.17  12
   1   3   7 1241.93 976.365   5
  -1  -3  -7 765.885 855.228   9
  -1  -3  -7 357.216 829.342   8
   1   3   8 57990.5 3403.49   5
  -1  -3  -8 61084.7 3672.27   9
   1   3   8 59351.0 3501.94  12
  -1  -3  -8 61742.5 3655.36   8
   1   3   9 63.7017 17.3953  12
   1   3   9 70.3427 16.3225   5
  -1  -3  -9 68.6239 13.4182   9
  -1  -3  -9 72.9012 13.4860   8
  -1  -3 -10 3495.54 1737.20   9
   1   3  11 2821.65 1600.58   5
  -1  -3 -11 1619.60 1379.60   9
  -1  -3 -11 2376.04 1418.42   8
   1   3  11 1838.24 1401.18  12
   1   3  12 2523.42 1616.35   5
  -1  -3 -12-136.717 1197.59   9
  -1  -3 -12 441.299 1468.23   8
   1   3  13-386.178 1540.53   5
  -1  -3 -13 1182.72 1499.60   8
  -1  -4  14 3668.28 1810.43   2
   1   4 -14 3648.46 2258.73   1
   1   4 -14 1001.66 1882.06   3
  -1  -4  13 1105.54 1283.79   2
   1   4 -13-1397.72 1945.58   3
   1   4 -13 1386.05 1727.16   6
   1   4 -13 1939.30 1391.92   1
  -1  -4  13 1107.17 1414.12   4
  -1  -4  13-1066.92 1537.82   7
  -1  -4  12 858.363 1284.92   2
   1   4 -12 2415.51 1472.36   1
   1   4 -12-951.561 1596.10   3
   1   4 -12 4799.46 2028.09   6
  -1  -4  12 2404.54 1345.25   4
  -1  -4  12 2094.30 1617.86   7
  -1  -4  11 953.744 1201.25   2
   1   4 -11 1048.38 1708.71   3
   1   4 -11 770.699 1467.95   6
  -1  -4  11 2068.65 1463.96   4
  -1  -4  11-193.892 1278.62   7
   1   4 -11 889.155 1238.39   1
  -1  -4  10 28612.7 2886.43   7
  -1  -4  10 27042.5 2677.80   4
  -1  -4  10 25577.6 2596.59   2
   1   4 -10 29548.4 3039.70   6
   1   4 -10 25272.3 2664.43   1
   1   4  -9 14867.7 2012.93   1
   1   4  -9 20218.2 2475.47   6
   1   4  -9 12825.9 2046.29   3
   1   4  -9 17554.0 2279.63  11
  -1  -4   9 20063.8 2217.60  10
  -1  -4   9 17717.2 2140.18   4
  -1  -4   9 17794.5 2132.44   2
  -1  -4   9 20531.5 2395.76   7
  -1  -4   8 72664.1 4020.32   7
   1   4  -8 77486.7 4021.18  11
  -1  -4   8 69369.3 3703.49  10
   1   4  -8 72206.0 4055.78   6
  -1  -4   8 68964.6 3666.59   4
  -1  -4   8 71262.1 3602.07   2
   1   4  -8 72175.7 3786.08   1
   1   4  -7 1203.20 1045.79   3
   1   4  -7 3671.34 1339.43   6
   1   4  -7 4525.09 1356.67  11
  -1  -4   7 5231.03 1247.03  10
   1   4  -7 477.428 753.250   1
  -1  -4   7 4128.93 1186.45   4
  -1  -4   7 4642.13 1078.07   2
  -1  -4   7 4648.60 1258.82   7
   1   4  -6 1561.35 240.348   3
   1   4  -6 1557.52 366.414   6
   1   4  -6 1619.90 385.499  11
  -1  -4   6 1600.10 269.402  10
  -1  -4   6 1634.13 273.251   7
   1   4  -6 1589.72 204.950   1
  -1  -4   6 1582.41 260.444   4
  -1  -4   6 1577.39 286.483   2
   1   4  -5 15555.3 1734.15  11
  -1  -4   5 13084.4 1575.59   7
   1   4  -5 14742.9 1553.36   3
  -1  -4   5 14217.1 1629.48  10
   1   4  -5 13521.6 1638.85   6
  -1  -4   5 14682.5 1354.36   2
   1   4  -5 12377.5 1282.55   1
  -1  -4   5 13991.1 1389.00  16
  -1  -4   5 13978.1 1408.62  15
   1   4  -4 27649.0 1523.35   6
   1   4  -4 27323.6 1531.30  11
  -1  -4   4 28404.8 1555.13  10
  -1  -4   4 27803.9 1491.61   7
  -1  -4   4 28300.7 1372.15  16
  -1  -4   4 28409.6 1278.55  15
   1   4  -3 2279.71 780.880   6
  -1  -4   3 2062.03 640.620  16
   1   4  -3 1054.46 811.241  11
  -1  -4   3 2129.68 697.250   7
  -1  -4   3 2420.45 804.569  10
  -1  -4   3 2157.44 702.842  15
   1   4  -2 7226.37 856.584  12
   1   4  -2 7479.16 1034.49   6
   1   4  -2 7224.02 1143.58  11
  -1  -4   2 6402.73 1085.91  10
  -1  -4   2 6775.41 824.420   9
  -1  -4   2 6689.82 1053.52  16
  -1  -4   2 6264.84 980.038   7
  -1  -4   2 6613.32 1062.82  15
  -1  -4   0 46217.3 2509.68  16
   1   4   0 45880.7 2335.22  11
  -1  -4   0 45227.8 2360.96  10
   1   4   0 45397.8 1895.55   6
  -1  -4   0 46611.1 2236.77   9
  -1  -4   0 42317.4 1851.92   7
  -1  -4   0 47372.3 2532.60  15
   1   4   1 69059.7 2855.15  12
   1   4   1 61818.8 2724.67  11
  -1  -4  -1 65955.2 2808.97  10
  -1  -4  -1 69151.7 2916.85   9
  -1  -4  -1 69041.6 3169.01  15
  -1  -4  -1 68736.8 3142.30  16
   1   4   2 1230.22 185.094  12
   1   4   2 1295.02 151.241   5
   1   4   3 5845.27 1113.23  12
   1   4   3 6277.90 970.034  11
  -1  -4  -3 6469.29 944.066  10
   1   4   3 5987.76 917.895   5
  -1  -4  -3 5110.18 1020.16   9
  -1  -4  -3 5590.51 904.228   8
  -1  -4  -3 4981.64 992.653  16
  -1  -4  -3 6205.49 1059.31  15
   1   4   4 68132.8 3363.10  12
   1   4   4 68680.9 2942.47   5
  -1  -4  -4 65503.3 3332.42   9
  -1  -4  -4 61867.5 2851.83   8
  -1  -4  -4 64962.1 3244.51  16
  -1  -4  -4 61864.7 3135.86  15
   1   4   5 3072.65 1115.87  14
   1   4   5 3733.37 1032.14  13
   1   4   5 3638.54 1090.24  12
  -1  -4  -5 3606.12 1034.06  16
   1   4   5 4164.80 1026.24   5
  -1  -4  -5 3255.28 1032.82   9
  -1  -4  -5 5353.60 1117.16   8
  -1  -4  -5 3455.07 953.567  15
   1   4   6 21805.9 2183.63  12
   1   4   6 22241.3 2016.06   5
  -1  -4  -6 20310.5 1929.72  15
  -1  -4  -6 20633.4 2154.74   9
  -1  -4  -6 19326.6 1889.80   8
   1   4   6 22784.0 2077.28  13
  -1  -4  -6 19680.8 1923.20  16
   1   4   7 5069.36 1396.71  12
   1   4   7 5343.34 1303.60   5
  -1  -4  -7 4789.20 1374.99   9
  -1  -4  -7 4948.14 1275.14   8
  -1  -4  -7 5783.56 1245.54  16
   1   4   8 13535.3 2040.96   5
  -1  -4  -8 10168.8 1937.16   9
  -1  -4  -8 9743.24 1791.91   8
   1   4   9 19098.7 2445.84  12
   1   4   9 15245.8 2091.61   5
  -1  -4  -9 16804.1 2317.65   9
  -1  -4  -9 17463.5 2283.15   8
   1   4  10 7644.80 1768.59   5
  -1  -4 -10 9714.88 1986.38   9
  -1  -4 -10 10289.2 2108.30   8
   1   4  10 9067.40 1904.12  12
   1   4  11 10949.1 2115.73  12
   1   4  11 9817.70 2019.09   5
  -1  -4 -11 9337.65 2148.01   9
  -1  -4 -11 10386.9 2126.94   8
   1   4  12 1620.93 1610.21  12
   1   4  12 2301.56 1620.41   5
  -1  -4 -12 3215.40 1590.16   9
  -1  -4 -12 2463.89 1560.28   8
   1   4  13 6085.22 2212.52  12
   1   4  13 2188.63 1562.45   5
  -1  -4 -13 4937.71 1978.62   9
  -1  -4 -13 2350.34 1944.16   8
   1   5 -13-682.958 1585.74   1
   1   5 -12 1162.54 1813.36   6
  -1  -5  12-950.663 1595.37   7
   1   5 -11 24346.4 3061.27   6
  -1  -5  11 20181.8 2783.95   7
   1   5 -10 1002.89 1529.62   6
  -1  -5  10 578.894 1301.00   7
   1   5  -9 5948.32 1741.21   6
   1   5  -9 6820.50 1957.82  11
  -1  -5   9 6248.73 1585.78  10
  -1  -5   9 5766.04 1756.55   7
   1   5  -8 4012.52 1448.71   6
   1   5  -8 3549.75 1497.15  11
  -1  -5   8 3934.01 1278.34  10
  -1  -5   8 4765.52 1541.63   7
   1   5  -7 2599.86 1476.65   6
   1   5  -7 4114.23 1649.52  11
  -1  -5   7 2444.00 1217.57  10
  -1  -5   7 812.772 1034.86   7
   1   5  -6 26288.9 2504.05  11
  -1  -5   6 26876.6 2495.20  10
   1   5  -6 22812.9 2394.78   6
  -1  -5   6 24079.4 2388.11   7
   1   5  -5 91218.1 4217.40   6
   1   5  -5 100313. 4370.55  11
  -1  -5   5 94880.9 4351.00  10
  -1  -5   5 95610.2 4207.34   7
   1   5  -4 35049.1 2660.58  13
   1   5  -4 37480.6 2607.78   6
   1   5  -4 36452.8 2613.52  11
  -1  -5   4 37562.6 2698.04  10
  -1  -5   4 36861.9 2442.32  16
  -1  -5   4 38056.6 2528.30   7
  -1  -5   4 40322.2 2557.84  15
   1   5  -3 16892.8 1891.68  13
   1   5  -3 16357.2 1672.36   6
  -1  -5   3 17922.1 1749.09  15
   1   5  -3 16383.8 1801.62  11
  -1  -5   3 16063.2 1756.96  10
  -1  -5   3 17814.7 1748.15  16
  -1  -5   3 16567.8 1609.44   7
   1   5  -2 1622.78 178.309  13
   1   5  -2 1546.38 149.032   6
   1   5  -2 1621.43 161.617  11
  -1  -5   2 1593.63 168.442  16
  -1  -5   2 1583.13 159.654  10
  -1  -5   2 1561.36 146.140   7
  -1  -5   2 1612.23 169.697  15
   1   5  -1 19356.5 1710.37  13
   1   5  -1 18932.7 1022.87   6
   1   5  -1 19165.9 1307.43  12
   1   5  -1 19009.1 1458.99  11
  -1  -5   1 18761.8 1545.08  10
  -1  -5   1 19110.3 1202.06   9
  -1  -5   1 18231.1 1613.17  16
  -1  -5   1 18529.2 1085.66   7
  -1  -5   1 18422.1 1621.89  15
  -1  -5   0 11487.2 1480.36  16
   1   5   0 13510.5 1661.25  13
   1   5   0 13193.0 1431.64  12
   1   5   0 12523.7 1493.14  11
  -1  -5   0 12071.0 1469.26  10
  -1  -5   0 11781.6 1319.63   9
  -1  -5   0 11194.1 1470.84  15
   1   5   1 44959.9 2908.49  13
   1   5   1 46270.7 2679.28  12
   1   5   1 44810.0 2569.86  11
  -1  -5  -1 47166.2 2694.61  10
  -1  -5  -1 47505.8 2660.04   9
  -1  -5  -1 47041.1 2969.50  16
  -1  -5  -1 45840.8 2947.21  15
   1   5   2 5127.44 184.666  13
   1   5   2 5092.34 174.933  12
   1   5   2 4935.34 158.296  11
  -1  -5  -2 4742.75 147.945  10
  -1  -5  -2 5088.56 160.322   9
  -1  -5  -2 5099.96 164.233  16
  -1  -5  -2 4801.37 162.519  15
   1   5   3 40157.1 2793.95  13
   1   5   3 39987.4 2770.83  12
   1   5   3 37225.7 2311.48  11
  -1  -5  -3 34500.2 2262.71  10
  -1  -5  -3 35657.2 2614.47   9
  -1  -5  -3 37597.0 2780.26  16
  -1  -5  -3 37338.8 2707.05  15
   1   5   4 14741.4 1912.19  12
  -1  -5  -4 12434.0 1684.71   9
  -1  -5  -4 9745.45 1541.59  15
  -1  -5  -5 57982.9 3524.20  16
   1   5   5 59870.5 3490.27  13
   1   5   5 60436.9 3582.41  12
   1   5   5 60710.4 3192.89   5
  -1  -5  -5 55787.7 3547.58   9
  -1  -5  -5 54651.9 3365.01  15
   1   5   6 20045.7 2180.36  13
   1   5   6 19259.1 2281.11  12
   1   5   6 21452.6 2118.29   5
  -1  -5  -6 21188.7 2398.53   9
  -1  -5  -6 22535.3 2140.05   8
  -1  -5  -6 20393.1 2193.25  16
  -1  -5  -6 20219.7 2204.68  15
   1   5   7-862.195 1323.40  13
   1   5   7 216.126 1250.37  12
   1   5   7 658.612 1121.17   5
  -1  -5  -7 1017.93 1136.44   9
  -1  -5  -7 855.525 1046.79   8
  -1  -5  -7 722.988 963.604  16
  -1  -5  -7 2356.42 1196.10  15
   1   5   8-682.167 1226.18  12
   1   5   8-315.344 1155.04   5
  -1  -5  -8 6.28463 1104.11   9
  -1  -5  -8 108.046 1085.76   8
   1   5   9 17051.3 2493.30  12
   1   5   9 14716.3 2235.12   5
  -1  -5  -9 16428.3 2508.96   9
  -1  -5  -9 16666.5 2325.96   8
   1   5  10 2690.53 1486.86  12
   1   5  10 4036.31 1562.93   5
  -1  -5 -10 1806.59 1456.31   9
  -1  -5 -10 5081.32 1693.92   8
   1   5  11 2601.30 1777.70  12
   1   5  11 1033.84 1447.12   5
  -1  -5 -11 1497.91 1462.92   9
  -1  -5 -11 3552.40 1752.19   8
   1   5  12-291.086 1649.67  12
   1   5  12 2864.18 1921.40   5
  -1  -5 -12 666.348 1525.46   9
  -1  -5 -12-598.433 1727.93   8
   1   6 -11 1118.27 1809.65   6
  -1  -6  11-1265.22 1520.97   7
   1   6 -10 5130.06 1958.94   6
   1   6 -10 3494.75 1864.35  11
  -1  -6  10 3232.16 1529.92  10
  -1  -6  10 2904.39 1648.00   7
   1   6  -9 1447.71 1646.81   6
   1   6  -9-2125.18 1624.33  11
  -1  -6   9 3312.00 1615.95  10
  -1  -6   9-522.776 1421.19   7
   1   6  -8 15950.3 2505.95   6
   1   6  -8 20012.4 2705.96  11
  -1  -6   8 14969.7 2292.89  10
  -1  -6   8 16133.6 2369.40   7
   1   6  -7-343.576 1378.67   6
   1   6  -7 2191.04 1558.81  11
  -1  -6   7 183.799 1076.92  10
  -1  -6   7 408.934 1134.52   7
   1   6  -6 3811.10 1542.11   6
   1   6  -6 5828.89 1823.44  11
  -1  -6   6 6253.65 1557.35  10
  -1  -6   6 6279.48 1561.73   7
   1   6  -5 16088.2 2903.41   6
   1   6  -5 15675.4 3037.95  11
  -1  -6   5 16402.1 2865.51  10
  -1  -6   5 15800.4 2622.33   7
   1   6  -4 9728.11 1693.03  13
   1   6  -4 5830.80 1361.03   6
   1   6  -4 7722.09 1753.20  11
  -1  -6   4 7346.13 1462.98  10
  -1  -6   4 7228.81 1379.20  16
  -1  -6   4 7927.90 1446.20  15
  -1  -6   4 5646.58 1304.51   7
   1   6  -2 5964.40 1489.29  13
   1   6  -2 5380.84 1442.95  11
  -1  -6   2 4332.76 1199.92  10
  -1  -6   2 4942.86 1213.15  16
  -1  -6   2 4758.30 1286.74  15
   1   6  -1 92720.2 4535.09  13
   1   6  -1 86644.0 4017.16  11
  -1  -6   1 86976.4 4137.83  10
  -1  -6   1 90888.7 4344.53  16
  -1  -6   1 92915.0 4429.94  15
   1   6   0 1739.69 209.720  13
   1   6   0 1695.02 188.369  11
  -1  -6   0 1714.73 173.361  10
  -1  -6   0 1676.89 189.225  16
  -1  -6   0 1652.00 189.975  15
   1   6   1 21360.2 1041.69  13
   1   6   1 21706.9 1704.90  12
   1   6   1 21968.2 1383.38  11
  -1  -6  -1 22146.9 1595.68  10
  -1  -6  -1 21556.0 1532.69   9
  -1  -6  -1 22429.5 1787.14  16
  -1  -6  -1 21813.7 1766.81  15
   1   6   2 1559.30 1223.97  13
   1   6   2 1012.68 968.864  12
   1   6   2 216.935 919.971  11
  -1  -6  -2 360.755 728.830  10
  -1  -6  -2 214.016 842.722   9
  -1  -6  -2 276.210 891.084  16
  -1  -6  -2-98.2418 950.174  15
   1   6   3 18544.2 2223.05  13
   1   6   3 15069.0 1953.03  12
  -1  -6  -3 16254.9 1959.64   9
  -1  -6  -3 16571.6 2042.73  16
  -1  -6  -3 16549.5 2069.19  15
   1   6   4 11190.1 1941.73  13
   1   6   4 12979.3 1927.66  12
  -1  -6  -4 13290.2 1962.41   9
  -1  -6  -4 12835.0 1913.09  16
  -1  -6  -4 12975.5 1917.31  15
   1   6   5 13492.1 2085.08  12
  -1  -6  -5 14924.8 2100.84   9
  -1  -6  -5 13664.1 2013.22  16
   1   6   5 12515.4 2019.78  13
  -1  -6  -5 12616.5 1916.10  15
   1   6   6 5480.82 1681.79  12
  -1  -6  -6 325.043 1057.82   9
  -1  -6  -6 667.893 1092.86  15
   1   6   6 5946.16 1667.61  13
  -1  -6  -6 2568.35 1312.11  16
   1   6   7 19617.6 2506.53  13
   1   6   7 21787.9 2643.13  12
  -1  -6  -7 22249.3 2763.23   9
  -1  -6  -7 23488.5 2629.38  16
  -1  -6  -7 19672.3 2455.03  15
   1   6   8-299.147 1363.02  12
  -1  -6  -8-149.220 1316.13   9
   1   6   9 2605.18 1624.35  12
  -1  -6  -9 4066.38 1654.19   9
   1   6  10 1935.72 1688.94  12
   1   6  10 1597.55 1669.79   5
  -1  -6 -10 152.190 1664.64   9
  -1  -6 -10 3800.73 1738.75   8
   1   6  11 5324.30 2145.00  12
  -1  -6 -11 3421.72 1783.73   9
  -1  -6 -11 1772.61 1648.02   8
   1   7 -10 2006.25 1686.87   6
   1   7 -10 2748.80 1933.74  11
  -1  -7  10 301.186 1363.36  10
  -1  -7  10-470.048 1560.33   7
   1   7  -9 5272.88 1856.12   6
   1   7  -9 7048.28 2178.27  11
  -1  -7   9 3828.60 1545.04  10
  -1  -7   9 3132.25 1428.44   7
   1   7  -8-1919.74 1565.17   6
   1   7  -8 1330.17 1644.99  11
  -1  -7   8-1276.59 1406.91  10
  -1  -7   8 341.589 1283.29   7
   1   7  -7 48850.7 3847.94   6
  -1  -7   7 45765.6 3627.40   7
   1   7  -7 49714.7 3904.04  11
  -1  -7   7 42816.2 3599.33  10
   1   7  -6 4051.01 1713.35   6
   1   7  -6 5910.69 1971.45  11
  -1  -7   6 4171.66 1631.31  10
  -1  -7   6 2469.54 1393.89   7
   1   7  -5 3088.71 1464.92   6
   1   7  -5 1966.48 1549.85  11
  -1  -7   5 3946.96 1425.78  10
  -1  -7   5 3241.10 1318.97   7
   1   7  -4 11982.7 1015.29  13
   1   7  -4 11640.9 1001.73  11
  -1  -7   4 12080.0 1046.20  10
  -1  -7   4 12331.4 1002.08  16
  -1  -7   4 11502.3 1087.20  15
   1   7  -3 55256.5 3859.64  13
   1   7  -3 48421.1 3533.14  11
  -1  -7   3 47945.5 3480.91  10
  -1  -7   3 48582.0 3413.61  16
  -1  -7   3 49173.2 3454.87  15
   1   7  -2 3399.51 1542.12  13
   1   7  -2 2472.39 1289.52  11
  -1  -7   2 3256.29 1179.12  10
  -1  -7   2 2137.47 1109.07  16
  -1  -7   2 2547.94 1130.38  15
   1   7  -1 18636.9 2421.59  13
   1   7  -1 19534.9 2306.63  11
  -1  -7   1 18266.3 2182.66  10
  -1  -7   1 17800.4 2252.56  16
  -1  -7   1 19456.3 2423.31  15
   1   7   0 2286.01 1296.38  13
   1   7   0 1603.19 1221.14  11
  -1  -7   0 3729.07 1268.17  10
  -1  -7   0 2540.33 1189.58  16
  -1  -7   0 2837.17 1279.95  15
   1   7   1 26356.5 2830.95  13
  -1  -7  -1 25834.5 2701.86  16
   1   7   1 25890.3 2446.04  11
  -1  -7  -1 22239.3 2239.65  10
  -1  -7  -1 23836.5 2574.23  15
   1   7   2 4307.29 1629.84  13
   1   7   2 2940.91 1347.01  12
   1   7   2 4778.41 1519.41  11
  -1  -7  -2 1904.21 1012.97  10
  -1  -7  -2 1611.35 1177.86   9
  -1  -7  -2 1506.76 1131.01  16
  -1  -7  -2 2399.66 1243.01  15
   1   7   3 17252.0 2529.39  13
   1   7   3 16437.5 2308.54  12
  -1  -7  -3 12607.3 1957.09   9
  -1  -7  -3 14450.6 2210.57  16
  -1  -7  -3 13612.0 2074.47  15
   1   7   4 2428.91 1466.25  13
   1   7   4 1035.38 1391.33  12
  -1  -7  -4 1847.33 1219.89   9
  -1  -7  -4 1377.10 1245.75  16
  -1  -7  -4 623.206 1154.17  15
   1   7   5 36746.3 3385.79  13
   1   7   5 38860.5 3470.59  12
  -1  -7  -5 37215.1 3330.21   9
  -1  -7  -5 33863.2 3305.93  16
  -1  -7  -5 35634.5 3283.49  15
   1   7   6 5124.84 1684.61  13
   1   7   6 6119.95 1837.35  12
  -1  -7  -6 5557.22 1611.91   9
  -1  -7  -6 5492.75 1723.73  16
  -1  -7  -6 4363.37 1439.13  15
  -1  -7  -7 25009.6 3007.38  16
   1   7   7 26876.9 3093.94  12
  -1  -7  -7 27115.8 3197.50   9
   1   7   8 1803.04 1752.42  12
  -1  -7  -8 1800.81 1509.15   9
   1   7   9 3552.85 1880.98  12
  -1  -7  -9 1802.21 1657.05   9
  -1  -8   9 9549.88 2346.70   7
  -1  -8   8 283.677 1370.56   7
   1   8  -8-1039.87 1824.32   6
   1   8  -8 2627.71 2022.38  11
  -1  -8   8 2165.32 1558.63  10
  -1  -8   7 1585.95 1484.91   7
   1   8  -7 1267.58 1744.05   6
   1   8  -7 2593.30 1938.26  11
  -1  -8   7 1677.08 1529.43  10
   1   8  -6 5365.33 1874.30   6
   1   8  -6 11373.8 2372.83  11
  -1  -8   6 7735.08 1970.56  10
   1   8  -5 8805.38 2130.73  11
  -1  -8   5 7875.59 1819.37  10
   1   8  -4 27380.6 3070.87  11
  -1  -8   4 25484.7 2875.62  10
   1   8  -3 949.541 1562.35  14
   1   8  -3 3885.27 1707.78  13
   1   8  -3 4278.39 1744.41  11
  -1  -8   3 3891.07 1462.01  10
  -1  -8   3 2410.60 1353.49  16
  -1  -8   3 2992.21 1396.20  15
   1   8  -2 15089.8 2452.61  13
   1   8  -2 13079.4 2325.88  11
  -1  -8   2 11146.4 2025.69  10
  -1  -8   2 12958.7 2167.80  16
  -1  -8   2 10645.7 2047.80  15
   1   8  -1 2526.09 225.032  13
   1   8  -1 2525.41 196.952  11
  -1  -8   1 2497.96 138.192  10
  -1  -8   1 2539.77 181.082  16
  -1  -8   1 2524.74 186.354  15
   1   8   0 5677.46 1598.74  11
  -1  -8   0 8635.20 1776.85  10
  -1  -8   0 9149.72 1943.36  16
  -1  -8   0 5476.52 1629.29  15
   1   8   1 8609.60 2148.22  13
   1   8   1 7929.83 1829.00  11
  -1  -8  -1 3938.80 1293.26  10
  -1  -8  -1 5847.20 1657.53  16
  -1  -8  -1 6980.49 1846.68  15
   1   8   2 6261.65 1932.60  13
  -1  -8  -2 5929.42 1798.61  16
  -1  -8  -2 4698.96 1668.76  15
   1   8   3 3372.56 1661.07  13
  -1  -8  -3 3032.23 1297.01   9
  -1  -8  -3 3893.00 1621.76  16
  -1  -8  -3 5144.19 1558.17  15
   1   8   4 23217.0 3013.44  13
  -1  -8  -4 23301.3 2827.53   9
  -1  -8  -4 18154.4 2588.94  16
  -1  -8  -5 3963.88 1628.07   9
  -1  -8  -5 4382.28 1644.20  16
  -1  -8  -6 222.099 1621.41   9
  -1  -8  -6-586.058 1432.94  16
   1   8   7 1521.53 1804.11  14
  -1  -8  -7 468.243 1483.49   9
  -1  -8  -7 580.611 1509.20  16
   1   8   8-501.694 1948.01  14
  -1  -8  -8-733.928 1498.90  16
   1   9  -5 11832.1 2721.16  11
  -1  -9   5 10607.7 2325.97  10
   1   9  -4 3129.06 1865.20  11
  -1  -9   4 1554.47 1532.64  10
   1   9  -3 44.9390 2039.76  14
   1   9  -3 5120.55 2100.84  11
  -1  -9   3 2269.58 1445.58  10
  -1  -9   3 4068.41 1539.96  16
   1   9  -2-132.085 1832.24  14
   1   9  -2 2336.82 1693.75  11
  -1  -9   2 1680.98 1400.09  10
  -1  -9   2 3778.76 1663.69  16
   1   9  -1 20255.9 2921.80  11
  -1  -9   1 14666.1 2445.49  16
   1   9   0 2036.48 1687.73  11
  -1  -9   0 2519.92 1594.25  16
  -1  -9  -1 14152.6 2541.62  16
  -1  -9  -2 2429.33 1607.48  16
  -1  -9  -3 5695.32 1902.56  16
  -1  -9  -4-227.385 1286.34  16
  -1  -9  -5 318.027 1531.74   9
  -1  -9  -5 772.088 1357.86  16
   2   2   7 8392.73 1492.32   5
   2   2   8 5857.66 1622.64   5
   2   2  10 11397.0 2019.90   5
  -2  -2 -10 8379.87 1954.01   8
   2   2  11 1053.27 1372.54   5
  -2  -2 -11 919.511 1192.35   8
   2   2  12 10957.7 2301.13   5
  -2  -2 -12 9845.08 2322.52   8
  -2  -3  -3 60708.6 3017.33  15
   2   3   4 4465.64 1007.80   5
  -2  -3  -4 3483.57 990.580  15
   2   3   5 82785.5 3632.40   5
  -2  -3  -5 75265.4 3661.40  15
   2   3   6 1386.00 969.474   5
  -2  -3  -6-388.169 1019.24   9
  -2  -3  -6 1370.90 845.681  15
   2   3   7-232.232 1015.37   5
  -2  -3  -7-1800.62 1288.88   9
  -2  -3  -7-1623.68 1186.70   8
   2   3   8 5041.89 1409.84   5
  -2  -3  -8 5296.61 1398.73   9
  -2  -3  -8 5115.38 1410.96   8
   2   3   9 80578.9 4506.36   5
  -2  -3  -9 80820.2 4820.36   9
  -2  -3  -9 88029.4 5092.62   8
   2   3  10 822.362 1305.01   5
  -2  -3 -10 614.273 1297.74   8
   2   3  11-1207.18 1399.67  12
   2   3  11-643.194 1331.93   5
  -2  -3 -11-1352.91 1485.67   8
   2   3  12 421.158 1501.38  12
   2   3  12 1309.03 1677.90   5
  -2  -3 -12 396.207 1385.83   8
  -2  -4   8 31801.1 3138.66  10
  -2  -4   7 8761.02 1653.22  10
  -2  -4   7 9650.95 1784.57   7
  -2  -4   6 2196.73 1039.93  10
  -2  -4   6 1802.14 1034.18   7
  -2  -4   5 17424.9 2053.98  10
  -2  -4   5 16817.2 1994.19   7
  -2  -4   4 870.674 799.112  10
  -2  -4   4 15.4530 649.067  15
  -2  -4   4 659.467 765.375   7
  -2  -4   3 2052.32 980.837  10
  -2  -4   3 2064.39 842.286   7
  -2  -4   3 1688.78 826.728  15
  -2  -4   2 25069.1 2202.45  10
  -2  -4   2 20416.8 1723.24   7
  -2  -4   2 23630.7 2143.96  15
  -2  -4   1 4345.72 1107.71  10
  -2  -4   1 3893.57 1076.39  15
  -2  -4   0 26339.2 2069.02  10
  -2  -4   0 29995.6 2360.18  15
  -2  -4  -1 5480.03 1107.74  10
  -2  -4  -1 5025.65 1153.00  15
  -2  -4  -2 21550.9 1784.21  10
  -2  -4  -2 19904.4 2005.10  15
  -2  -4  -3 14353.2 1801.66   9
  -2  -4  -3 14058.0 1747.19  15
   2   4   3 11511.3 2055.37  14
   2   4   4 14343.5 1549.41   5
  -2  -4  -4 14874.5 1914.68   9
  -2  -4  -4 13834.5 1723.49  15
   2   4   5 1670.35 926.755   5
  -2  -4  -5 881.204 1009.38   9
  -2  -4  -5 1576.55 953.219  15
   2   4   6 20778.8 2097.58   5
  -2  -4  -6 21411.1 2465.15   9
  -2  -4  -6 21495.2 2333.31   8
  -2  -4  -6 19292.8 2153.57  15
   2   4   7 9381.65 1615.23   5
  -2  -4  -7 10191.9 1898.98   9
  -2  -4  -7 12599.3 1979.60   8
   2   4   8-527.842 1054.39   5
  -2  -4  -8-2487.12 1510.70   9
  -2  -4  -8 376.221 1093.65   8
   2   4   9 142.465 1256.36  12
   2   4   9-681.565 1152.69   5
  -2  -4  -9-1831.92 1397.80   9
  -2  -4  -9-615.582 1155.47   8
   2   4  10 938.731 1381.79  12
   2   4  10 363.856 1242.55   5
  -2  -4 -10 1267.73 1431.36   9
  -2  -4 -10-1210.95 1508.75   8
   2   4  11-714.013 1498.96  12
   2   4  11 1462.61 1432.89   5
  -2  -4 -11-720.796 1491.06   9
  -2  -4 -11 796.549 1475.82   8
   2   4  12 2789.96 1862.74  12
   2   4  12 5967.48 1976.28   5
  -2  -4 -12 5488.90 1981.75   9
  -2  -4 -12 6337.95 1951.64   8
  -2  -5  11-1917.44 1367.98   7
  -2  -5  10 344.797 1278.03  10
  -2  -5  10 700.179 1226.73   7
  -2  -5   9 2224.71 1371.16  10
  -2  -5   9 5039.16 1710.83   7
  -2  -5   8 3434.72 1372.90  10
  -2  -5   8 2692.93 1416.84   7
  -2  -5   7 69018.3 4363.03  10
  -2  -5   7 71132.1 4243.11   7
   2   5  -6 2247.37 1817.87  11
  -2  -5   6 3489.24 1340.23  10
  -2  -5   6 1368.27 1083.61   7
   2   5  -5 7652.27 1841.88  11
  -2  -5   5 8348.64 1686.22  10
  -2  -5   5 6376.48 1412.29   7
  -2  -5   5 6945.91 1509.46  15
   2   5  -4 1981.85 1335.90  11
  -2  -5   4 382.497 956.986  10
  -2  -5   4 991.176 972.860   7
  -2  -5   4-481.244 882.935  15
   2   5  -3 84923.6 4392.79  11
  -2  -5   3 76096.8 4072.44  10
  -2  -5   3 77538.9 3601.53   7
  -2  -5   3 75611.5 3987.66  15
   2   5  -2 18504.4 2198.73  11
  -2  -5   2 15795.1 1976.59  10
  -2  -5   2 15596.8 1942.35  15
   2   5  -1 12268.0 2025.81  11
  -2  -5   1 8771.23 1666.63  16
   2   5  -1 6135.55 1969.03  14
   2   5   0 282.736 115.613  11
  -2  -5   0 316.892 106.807  10
  -2  -5   0 284.410 101.029  16
  -2  -5   0 241.941 90.9120  15
   2   5   0 270.593 131.916  14
  -2  -5  -1 50582.4 2994.10  10
  -2  -5  -1 54805.7 3306.65   9
  -2  -5  -1 48414.0 3259.68  16
  -2  -5  -1 51076.9 3315.34  15
   2   5   1 51277.0 3795.10  14
  -2  -5  -2 1569.52 130.467  10
  -2  -5  -2 1603.73 149.588   9
  -2  -5  -2 1580.36 130.728  16
  -2  -5  -2 1590.90 136.666  15
   2   5   2 1575.98 190.802  14
  -2  -5  -3 15038.6 1946.29   9
  -2  -5  -3 14551.9 1865.85  16
  -2  -5  -3 12902.4 1808.60  15
   2   5   3 12842.9 2310.67  14
  -2  -5  -4 6742.51 1540.87   9
  -2  -5  -4 7686.16 1575.51  16
  -2  -5  -4 6859.97 1505.27  15
   2   5   4 3976.88 1654.50  14
  -2  -5  -5 55478.9 3840.53   9
  -2  -5  -5 55503.0 3647.60  16
  -2  -5  -5 55659.9 3649.45  15
  -2  -5  -6 4330.41 1494.40   9
  -2  -5  -6 5860.14 1506.95  16
  -2  -5  -6 6964.00 1555.02  15
   2   5   7 40928.7 3376.05  12
  -2  -5  -7 39118.6 3622.19   9
   2   5   8 1430.58 1305.88  12
   2   5   8 178.740 1211.18   5
  -2  -5  -8-73.9270 1219.53   9
   2   5   9 421.077 1412.64  12
   2   5   9 477.972 1209.02   5
  -2  -5  -9-1626.93 1668.03   9
  -2  -5  -9-1058.41 1397.69   8
   2   5  10-1385.43 1553.78  12
   2   5  10-4280.53 1707.55   5
  -2  -5 -10-3030.35 1756.40   9
  -2  -5 -10 678.530 1505.85   8
   2   5  11 3874.39 2043.11  12
   2   5  11 745.709 1492.78   5
  -2  -5 -11 3496.76 1727.77   9
  -2  -5 -11 741.255 1602.85   8
  -2  -6  10 1915.92 1545.36  10
  -2  -6  10 1205.03 1402.70   7
  -2  -6   9 205.652 1304.35  10
  -2  -6   9 380.558 1390.86   7
   2   6  -8 2547.63 1573.38  11
  -2  -6   8 1807.01 1263.80  10
  -2  -6   8 3668.35 1564.14   7
   2   6  -7 2403.21 1489.76  11
  -2  -6   7 4653.64 1689.12  10
  -2  -6   7 4494.47 1559.19   7
   2   6  -6 28678.7 3138.88  11
  -2  -6   6 25523.9 2888.83  10
  -2  -6   6 25838.1 2655.71   7
   2   6  -5-556.534 1423.28  11
  -2  -6   5 3570.57 1431.55  10
  -2  -6   5 1954.15 1266.05   7
   2   6  -4 59823.4 4099.49  11
  -2  -6   4 53142.2 3692.38  10
  -2  -6   4 56211.0 3662.10  15
   2   6  -3 7268.38 1724.60  11
  -2  -6   3 8394.61 1672.75  10
  -2  -6   3 6638.27 1424.86  16
  -2  -6   3 6170.81 1395.10  15
   2   6  -2-1635.54 1484.58  11
  -2  -6   2-1558.04 1148.52  10
  -2  -6   2-890.171 1039.61  16
  -2  -6   2 342.697 963.559  15
   2   6  -2-208.718 1395.57  14
   2   6  -1 10675.1 1946.98  11
  -2  -6   1 11577.7 1845.65  10
  -2  -6   1 8892.11 1715.11  16
  -2  -6   1 12385.6 1984.74  15
   2   6   0 15929.6 2238.34  11
  -2  -6   0 14041.0 1879.15  10
  -2  -6   0 16671.1 2142.42  16
  -2  -6   0 15510.9 2124.60  15
   2   6   0 10166.6 2172.76  14
   2   6   1 13006.8 1850.23  12
   2   6   1 13122.2 1890.88  11
  -2  -6  -1 11563.0 1755.31  10
  -2  -6  -1 17046.9 2090.12   9
  -2  -6  -1 12723.8 1959.06  16
  -2  -6  -1 13234.5 1950.56  15
   2   6   1 14778.7 2408.08  14
   2   6   2 618.406 1092.91  12
  -2  -6  -2-356.818 913.599   9
  -2  -6  -2 390.286 920.488  16
  -2  -6  -2 770.062 934.772  15
   2   6   2 571.879 1390.99  14
   2   6   3 9472.86 1807.87  12
  -2  -6  -3 9161.76 1765.75   9
  -2  -6  -3 9045.19 1787.43  16
  -2  -6  -3 8900.18 1730.73  15
   2   6   3 10934.6 2207.00  14
   2   6   4 71647.7 4266.12  12
  -2  -6  -4 75465.2 4665.95   9
  -2  -6  -4 76437.4 4620.79  16
  -2  -6  -4 74993.7 4517.28  15
   2   6   5-829.753 1351.75  13
   2   6   5-528.534 1320.22  12
  -2  -6  -5 343.363 1139.96   9
  -2  -6  -5-100.985 1097.01  16
  -2  -6  -5-781.599 1164.39  15
   2   6   5 2602.52 1583.52  14
   2   6   6-1661.26 1412.67  13
   2   6   6-1514.81 1592.23  12
  -2  -6  -6 1420.47 1368.63   9
  -2  -6  -6 60.7581 1095.48  16
  -2  -6  -6-421.115 1171.11  15
   2   6   6 5.56144 1543.71  14
   2   6   7-396.896 1322.09  13
   2   6   7-1104.04 1300.61  12
  -2  -6  -7-576.980 1292.14   9
  -2  -6  -7 766.716 1138.63  16
  -2  -6  -7-1072.05 1432.31  15
   2   6   7-593.697 1465.18  14
   2   6   8 6948.80 2103.42  12
  -2  -6  -8 6715.86 1987.79   9
   2   6   9 881.601 1498.19  12
  -2  -6  -9-272.859 1510.71   9
   2   7  -9 1062.62 1833.47   6
   2   7  -9 1169.54 1848.16  11
  -2  -7   9 2034.17 1560.33  10
  -2  -7   9 443.373 1435.06   7
   2   7  -8-563.737 1475.76   6
   2   7  -8 2510.92 1980.27  11
  -2  -7   8 590.294 1417.01  10
  -2  -7   8-249.962 1389.62   7
   2   7  -7 1268.86 1545.58   6
   2   7  -7 1795.63 1756.08  11
  -2  -7   7 3724.88 1627.50  10
  -2  -7   7 3133.05 1597.20   7
   2   7  -6 788.990 1567.49  11
  -2  -7   6 714.315 1337.16  10
   2   7  -5 8502.35 2177.24  11
  -2  -7   5 12916.3 2269.96  10
   2   7  -4 17351.4 1619.24  13
   2   7  -4 17035.7 1881.50  11
   2   7  -3 1858.45 1573.41  13
   2   7  -3 1828.91 1825.42  11
  -2  -7   3 1430.99 1314.30  10
  -2  -7   3 1607.96 1236.07  16
  -2  -7   3 1023.75 1092.64  15
   2   7  -3 2564.19 1794.39  14
   2   7  -2 9275.13 2145.68  13
   2   7  -2 6203.00 1981.92  11
  -2  -7   2 6861.35 1774.51  10
  -2  -7   2 6921.07 1699.73  16
  -2  -7   2 7942.48 1949.24  15
   2   7  -2 1764.86 1672.12  14
   2   7  -1 17892.2 2527.36  11
  -2  -7   1 17832.9 2373.31  10
  -2  -7   1 18568.5 2490.47  16
  -2  -7   1 16449.7 2362.79  15
   2   7  -1 10360.7 2553.00  14
   2   7   0 24215.0 2957.90  13
   2   7   0 23237.3 2758.55  11
  -2  -7   0 19699.4 2373.84  10
  -2  -7   0 22096.3 2613.23  16
  -2  -7   0 21040.5 2642.29  15
   2   7   0 12292.1 2733.14  14
   2   7   1 3450.73 2031.80  14
   2   7   1 4484.65 1817.97  13
   2   7   1 9733.54 2133.16  11
  -2  -7  -1 6601.48 1747.68  10
  -2  -7  -1 5182.77 1736.73  16
  -2  -7  -1 5707.36 1693.41  15
   2   7   2 12584.8 2596.38  14
   2   7   2 8082.61 2115.07  13
   2   7   2 11412.2 2214.82  12
  -2  -7  -2 7073.94 1918.30  16
  -2  -7  -2 6707.53 1912.34  15
   2   7   3 11614.4 2642.79  14
   2   7   3 9166.34 2125.41  13
   2   7   3 9331.72 1937.09  12
  -2  -7  -3 8746.19 1768.21   9
  -2  -7  -3 8058.90 1855.78  16
  -2  -7  -3 8361.52 1936.78  15
   2   7   4 2337.74 1634.51  13
   2   7   4-118.777 1480.56  12
  -2  -7  -4-564.645 1126.18   9
  -2  -7  -4-470.286 1175.47  16
  -2  -7  -4-65.8020 1298.00  15
   2   7   4 3720.25 1900.53  14
   2   7   5 1014.92 1515.14  13
   2   7   5-1392.33 1605.71  12
  -2  -7  -5 164.503 1280.34   9
  -2  -7  -5-123.746 1166.67  16
  -2  -7  -5 502.389 1196.06  15
   2   7   5-892.914 1695.76  14
   2   7   6 3892.87 1681.90  13
   2   7   6 3102.59 1696.10  12
  -2  -7  -6 2015.24 1437.68   9
  -2  -7  -6 3336.18 1697.89  16
  -2  -7  -6 3648.46 1652.68  15
   2   7   6-26.7137 1620.52  14
   2   7   7 1281.24 1651.58  13
   2   7   7 677.630 1565.31  12
  -2  -7  -7 1589.46 1495.51   9
  -2  -7  -7 997.014 1359.16  16
  -2  -7  -7 446.572 1300.85  15
   2   7   7-4343.63 2038.01  14
   2   7   8 6934.29 2179.89  12
  -2  -7  -8 9031.14 2455.89   9
   2   8  -6 924.670 1967.10  11
  -2  -8   6-86.0620 1526.65  10
   2   8  -5 2037.83 1917.98  11
  -2  -8   5 612.971 1350.65  10
   2   8  -4 2192.52 1830.00  13
   2   8  -4 1938.13 1988.03  11
  -2  -8   4 2258.17 1612.26  10
  -2  -8   4 3334.81 1618.39  16
  -2  -8   4 3882.51 1729.66  15
   2   8  -4 320.355 1782.85  14
   2   8  -3 4396.36 2128.92  13
   2   8  -3 6302.44 2264.03  11
  -2  -8   3 2512.51 1388.34  10
  -2  -8   3 5715.40 1808.00  16
  -2  -8   3 3463.07 1686.19  15
   2   8  -3-1019.26 1679.61  14
   2   8  -2 6915.62 2232.59  13
   2   8  -2 5618.61 1813.90  11
  -2  -8   2 3658.00 1453.18  10
  -2  -8   2 5355.16 1809.61  16
  -2  -8   2 7338.76 1993.15  15
   2   8  -2 41.0073 1707.29  14
   2   8  -1 1593.85 243.107  13
   2   8  -1 1605.93 228.901  11
  -2  -8   1 1628.64 198.284  10
  -2  -8   1 1579.32 199.418  16
  -2  -8   1 1588.62 216.684  15
   2   8  -1 1600.83 191.165  14
   2   8   0 5142.50 2294.97  14
   2   8   0 8457.39 2144.25  13
   2   8   0 9493.09 2213.93  11
  -2  -8   0 9146.90 1947.78  10
  -2  -8   0 7957.79 2014.89  16
  -2  -8   0 10222.9 2034.47  15
   2   8   1 10522.1 3094.40  14
   2   8   1 19562.5 2898.55  13
  -2  -8  -1 21353.1 2894.02  16
  -2  -8  -1 17272.6 2628.21  15
   2   8   2 6187.33 2378.49  14
   2   8   2 6535.62 2240.05  13
  -2  -8  -2 3395.95 1696.84  16
  -2  -8  -2 1732.85 1473.67  15
   2   8   3 1694.91 1914.48  14
   2   8   3 2831.29 1860.65  13
  -2  -8  -3 2264.15 1606.78  16
  -2  -8  -3 3281.66 1565.91  15
   2   8   4 2912.19 2117.48  14
   2   8   4 814.595 1543.90  13
   2   8   4-638.063 1554.40  12
  -2  -8  -4-194.713 1257.10   9
  -2  -8  -4 2621.40 1580.18  16
  -2  -8  -4 1267.49 1328.40  15
   2   8   5 1896.87 1899.04  14
   2   8   5 186.059 1663.95  13
   2   8   5 2319.78 1714.88  12
  -2  -8  -5 38.0873 1509.47   9
  -2  -8  -5 603.382 1293.37  16
  -2  -8  -5-753.544 1404.06  15
   2   8   6 2240.76 1989.92  13
   2   8   6 2918.58 1837.69  12
  -2  -8  -6 5300.51 1955.52   9
  -2  -8  -6 3705.96 1835.92  16
  -2  -8  -6 4335.51 1919.01  15
   2   8   6-2050.30 1960.88  14
  -2  -8  -7 1133.70 1518.29  15
   2   8   7-3511.15 2404.58  14
   2   9  -4-842.600 2003.17  14
   2   9  -3-1986.49 2050.68  13
  -2  -9   3-458.272 1436.64  16
  -2  -9   3-1161.31 1669.37  15
   2   9  -3-1159.34 1920.01  14
   2   9  -2 1466.69 2280.77  13
   2   9  -2 544.507 1898.85  11
  -2  -9   2 3146.78 1679.26  10
  -2  -9   2 942.636 1371.20  16
  -2  -9   2 1045.72 1505.22  15
   2   9  -2-4626.95 2253.10  14
   2   9  -1 653.582 1860.35  13
   2   9  -1 2009.85 1892.90  11
  -2  -9   1 2797.23 1516.90  10
  -2  -9   1 3618.08 1580.51  16
  -2  -9   1 4615.25 2044.93  15
   2   9  -1 572.756 2173.38  14
   2   9   0 1442.87 2162.64  14
   2   9   0 3264.96 1973.79  11
  -2  -9   0 902.787 1528.68  16
  -2  -9   0 4457.11 2009.45  15
   0   0   0    0.00    0.00   0

TITL dimethyl_ether_phase_gamma_7_30GPa in P-1
REM P-1 (#2 in standard setting)
CELL 0.71073   4.249878   8.197962  12.610476  90.6411  93.9701  90.0394
ZERR    8.00   0.003506   0.002852   0.001881   0.0190   0.0293   0.0475
LATT  1
SFAC C H O
UNIT 16.00 48.00 8.00
TREF
HKLF 4
END
;
_shelx_hkl_checksum              62767
_olex2_submission_special_instructions 'No special instructions were received'
loop_
_space_group_symop_operation_xyz
'x, y, z'
'-x, -y, -z'
loop_
_atom_site_label
_atom_site_type_symbol
_atom_site_fract_x
_atom_site_fract_y
_atom_site_fract_z
_atom_site_U_iso_or_equiv
_atom_site_adp_type
_atom_site_occupancy
_atom_site_site_symmetry_order
_atom_site_calc_flag
_atom_site_refinement_flags_posn
_atom_site_refinement_flags_adp
_atom_site_refinement_flags_occupancy
_atom_site_disorder_assembly
_atom_site_disorder_group
O1 O 0.240(3) 0.8292(9) -0.0037(4) 0.082(12) Uani 1 1 d . . . . .
C1 C -0.041(5) 0.7358(14) -0.0105(6) 0.048(16) Uani 1 1 d . . . . .
H13 H -0.142119 0.743904 -0.080735 0.073 Uiso 1 1 calc R U . . .
H11 H -0.180702 0.776448 0.040411 0.073 Uiso 1 1 calc R U . . .
H12 H 0.008136 0.623754 0.004302 0.073 Uiso 1 1 calc R U . . .
C2 C 0.250(5) 0.9124(13) 0.0985(6) 0.038(14) Uani 1 1 d . . . . .
H23 H 0.413437 0.993563 0.101686 0.057 Uiso 1 1 calc R U . . .
H21 H 0.292871 0.834845 0.154095 0.057 Uiso 1 1 calc R U . . .
H22 H 0.050583 0.963852 0.107354 0.057 Uiso 1 1 calc R U . . .
O2 O 0.845(3) 0.5126(8) 0.1935(4) 0.034(10) Uani 1 1 d . . . . .
C3 C 0.552(5) 0.5002(13) 0.1409(7) 0.037(14) Uani 1 1 d . . . . .
H33 H 0.542484 0.403031 0.097564 0.056 Uiso 1 1 calc R U . . .
H31 H 0.515165 0.593709 0.096605 0.056 Uiso 1 1 calc R U . . .
H32 H 0.394248 0.495181 0.191592 0.056 Uiso 1 1 calc R U . . .
C4 C 0.863(5) 0.6591(12) 0.2548(7) 0.075(16) Uani 1 1 d . . . . .
H42 H 0.783470 0.748082 0.211966 0.112 Uiso 1 1 calc R U . . .
H43 H 1.078333 0.680152 0.278883 0.112 Uiso 1 1 calc R U . . .
H41 H 0.738439 0.648119 0.315095 0.112 Uiso 1 1 calc R U . . .
O3 O 0.714(4) 0.0122(9) 0.2895(4) 0.085(11) Uani 1 1 d . . . . .
C5 C 0.429(6) -0.0141(15) 0.3470(7) 0.066(17) Uani 1 1 d . . . . .
H51 H 0.245633 0.012962 0.301779 0.099 Uiso 1 1 calc R U . . .
H52 H 0.437070 0.053987 0.409528 0.099 Uiso 1 1 calc R U . . .
H53 H 0.417646 -0.126455 0.367076 0.099 Uiso 1 1 calc R U . . .
C6 C 0.680(5) 0.1709(12) 0.2492(8) 0.063(16) Uani 1 1 d . . . . .
H62 H 0.510643 0.172508 0.194618 0.094 Uiso 1 1 calc R U . . .
H63 H 0.872158 0.203780 0.219885 0.094 Uiso 1 1 calc R U . . .
H61 H 0.632894 0.244860 0.305507 0.094 Uiso 1 1 calc R U . . .
O4 O 0.261(3) 0.3117(8) 0.4976(4) 0.042(11) Uani 1 1 d . . . . .
C7 C -0.009(5) 0.2107(14) 0.5049(6) 0.058(17) Uani 1 1 d . . . . .
H73 H 0.005406 0.156050 0.571974 0.088 Uiso 1 1 calc R U . . .
H71 H -0.017860 0.131259 0.448232 0.088 Uiso 1 1 calc R U . . .
H72 H -0.195690 0.276561 0.499377 0.088 Uiso 1 1 calc R U . . .
C8 C 0.234(6) 0.4113(12) 0.4053(6) 0.059(16) Uani 1 1 d . . . . .
H81 H 0.067885 0.489404 0.412051 0.088 Uiso 1 1 calc R U . . .
H82 H 0.185615 0.343922 0.343505 0.088 Uiso 1 1 calc R U . . .
H83 H 0.429215 0.467453 0.398230 0.088 Uiso 1 1 calc R U . . .
loop_
_atom_site_aniso_label
_atom_site_aniso_U_11
_atom_site_aniso_U_22
_atom_site_aniso_U_33
_atom_site_aniso_U_23
_atom_site_aniso_U_13
_atom_site_aniso_U_12
O1 0.15(3) 0.046(6) 0.049(3) 0.005(3) -0.012(6) -0.043(15)
C1 0.05(4) 0.044(9) 0.048(5) 0.000(5) 0.009(8) -0.02(2)
C2 0.03(4) 0.030(8) 0.056(5) -0.004(5) -0.004(9) 0.009(17)
O2 0.03(3) 0.021(5) 0.048(3) -0.005(3) 0.001(6) 0.006(11)
C3 0.03(4) 0.037(8) 0.044(4) -0.003(4) 0.014(9) -0.005(17)
C4 0.13(4) 0.029(7) 0.057(5) 0.004(5) -0.019(9) -0.024(18)
O3 0.16(3) 0.044(6) 0.050(3) 0.008(3) 0.002(6) -0.045(13)
C5 0.09(5) 0.050(9) 0.061(5) 0.007(6) 0.001(11) -0.01(2)
C6 0.11(4) 0.029(7) 0.054(5) -0.005(5) 0.000(9) -0.002(18)
O4 0.03(3) 0.042(6) 0.051(3) 0.004(3) 0.005(6) -0.010(13)
C7 0.09(5) 0.045(9) 0.041(4) -0.005(4) 0.019(9) -0.02(2)
C8 0.10(4) 0.022(7) 0.052(5) -0.002(4) 0.004(9) 0.007(18)
loop_
_atom_type_symbol
_atom_type_description
_atom_type_scat_dispersion_real
_atom_type_scat_dispersion_imag
_atom_type_scat_source
C C 0.0033 0.0016 'International Tables Vol C Tables 4.2.6.8 and 6.1.1.4'
H H 0.0000 0.0000 'International Tables Vol C Tables 4.2.6.8 and 6.1.1.4'
O O 0.0106 0.0060 'International Tables Vol C Tables 4.2.6.8 and 6.1.1.4'
loop_
_geom_angle_atom_site_label_1
_geom_angle_atom_site_label_2
_geom_angle_atom_site_label_3
_geom_angle
_geom_angle_site_symmetry_1
_geom_angle_site_symmetry_3
_geom_angle_publ_flag
C1 O1 C2 106.0(11) . . ?
O1 C1 H13 109.5 . . ?
O1 C1 H11 109.5 . . ?
O1 C1 H12 109.5 . . ?
H13 C1 H11 109.5 . . ?
H13 C1 H12 109.5 . . ?
H11 C1 H12 109.5 . . ?
O1 C2 H23 109.5 . . ?
O1 C2 H21 109.5 . . ?
O1 C2 H22 109.5 . . ?
H23 C2 H21 109.5 . . ?
H23 C2 H22 109.5 . . ?
H21 C2 H22 109.5 . . ?
C3 O2 C4 109.5(14) . . ?
O2 C3 H33 109.5 . . ?
O2 C3 H31 109.5 . . ?
O2 C3 H32 109.5 . . ?
H33 C3 H31 109.5 . . ?
H33 C3 H32 109.5 . . ?
H31 C3 H32 109.5 . . ?
O2 C4 H42 109.5 . . ?
O2 C4 H43 109.5 . . ?
O2 C4 H41 109.5 . . ?
H42 C4 H43 109.5 . . ?
H42 C4 H41 109.5 . . ?
H43 C4 H41 109.5 . . ?
C6 O3 C5 104.5(14) . . ?
O3 C5 H51 109.5 . . ?
O3 C5 H52 109.5 . . ?
O3 C5 H53 109.5 . . ?
H51 C5 H52 109.5 . . ?
H51 C5 H53 109.5 . . ?
H52 C5 H53 109.5 . . ?
O3 C6 H62 109.5 . . ?
O3 C6 H63 109.5 . . ?
O3 C6 H61 109.5 . . ?
H62 C6 H63 109.5 . . ?
H62 C6 H61 109.5 . . ?
H63 C6 H61 109.5 . . ?
C7 O4 C8 111.8(10) . . ?
O4 C7 H73 109.5 . . ?
O4 C7 H71 109.5 . . ?
O4 C7 H72 109.5 . . ?
H73 C7 H71 109.5 . . ?
H73 C7 H72 109.5 . . ?
H71 C7 H72 109.5 . . ?
O4 C8 H81 109.5 . . ?
O4 C8 H82 109.5 . . ?
O4 C8 H83 109.5 . . ?
H81 C8 H82 109.5 . . ?
H81 C8 H83 109.5 . . ?
H82 C8 H83 109.5 . . ?
loop_
_geom_bond_atom_site_label_1
_geom_bond_atom_site_label_2
_geom_bond_distance
_geom_bond_site_symmetry_2
_geom_bond_publ_flag
O1 C1 1.416(16) . ?
O1 C2 1.449(11) . ?
C1 H13 0.9600 . ?
C1 H11 0.9600 . ?
C1 H12 0.9600 . ?
C2 H23 0.9600 . ?
C2 H21 0.9600 . ?
C2 H22 0.9600 . ?
O2 C3 1.37(2) . ?
O2 C4 1.420(11) . ?
C3 H33 0.9600 . ?
C3 H31 0.9600 . ?
C3 H32 0.9600 . ?
C4 H42 0.9600 . ?
C4 H43 0.9600 . ?
C4 H41 0.9600 . ?
O3 C5 1.47(2) . ?
O3 C6 1.406(12) . ?
C5 H51 0.9600 . ?
C5 H52 0.9600 . ?
C5 H53 0.9600 . ?
C6 H62 0.9600 . ?
C6 H63 0.9600 . ?
C6 H61 0.9600 . ?
O4 C7 1.421(15) . ?
O4 C8 1.427(9) . ?
C7 H73 0.9600 . ?
C7 H71 0.9600 . ?
C7 H72 0.9600 . ?
C8 H81 0.9600 . ?
C8 H82 0.9600 . ?
C8 H83 0.9600 . ?
