#------------------------------------------------------------------------------
#$Date: 2024-02-05 14:09:55 +0200 (Mon, 05 Feb 2024) $
#$Revision: 289697 $
#$URL: file:///home/coder/svn-repositories/cod/cif/1/57/04/1570439.cif $
#------------------------------------------------------------------------------
#
# This file is available in the Crystallography Open Database (COD),
# http://www.crystallography.net/
#
# All data on this site have been placed in the public domain by the
# contributors.
#
data_1570439
loop_
_publ_author_name
'Sacharczuk, Natalia'
'Olejniczak, Anna'
'Bujak, Maciej'
'Dziubek, Kamil Filip'
'Katrusiak, Andrzej'
'Podsiad&#x142;o, Marcin'
_publ_section_title
;
 Conformation-aggregation interplay in the simplest aliphatic ethers
 probed under high pressure.
;
_journal_issue                   'Pt 1'
_journal_name_full               IUCrJ
_journal_page_first              57
_journal_page_last               61
_journal_paper_doi               10.1107/S2052252523009995
_journal_volume                  11
_journal_year                    2024
_chemical_formula_moiety         'C4 H10 O'
_chemical_formula_sum            'C4 H10 O'
_chemical_formula_weight         74.12
_chemical_name_systematic        'diethyl ether'
_space_group_crystal_system      monoclinic
_space_group_IT_number           14
_space_group_name_Hall           '-P 2ybc'
_space_group_name_H-M_alt        'P 1 21/c 1'
_atom_sites_solution_hydrogens   geom
_atom_sites_solution_primary     dual
_audit_creation_method
;
Olex2 1.5
(compiled 2022.04.07 svn.rca3783a0 for OlexSys, GUI svn.r6498)
;
_cell_angle_alpha                90
_cell_angle_beta                 93.443(4)
_cell_angle_gamma                90
_cell_formula_units_Z            4
_cell_length_a                   6.8268(3)
_cell_length_b                   8.1428(17)
_cell_length_c                   7.7731(3)
_cell_measurement_reflns_used    1485
_cell_measurement_temperature    295(2)
_cell_measurement_theta_max      25.7360
_cell_measurement_theta_min      4.5830
_cell_volume                     431.32(9)
_computing_cell_refinement       'CrysAlisPro 1.171.42.49 (Rigaku OD, 2022)'
_computing_data_collection       'CrysAlisPro 1.171.42.49 (Rigaku OD, 2022)'
_computing_data_reduction        'CrysAlisPro 1.171.42.49 (Rigaku OD, 2022)'
_computing_molecular_graphics    'Olex2 1.5 (Dolomanov et al., 2009)'
_computing_publication_material  'Olex2 1.5 (Dolomanov et al., 2009)'
_computing_structure_refinement  'SHELXL 2018/3 (Sheldrick, 2015)'
_computing_structure_solution    'SHELXT 2018/2 (Sheldrick, 2018)'
_diffrn_ambient_environment      'diamond-anvil cell'
_diffrn_ambient_pressure         1850000
_diffrn_ambient_temperature      295(2)
_diffrn_measured_fraction_theta_full 0.468
_diffrn_measured_fraction_theta_max 0.437
_diffrn_measurement_device_type  'KUMA KM4-CCD, Eos'
_diffrn_measurement_method       '\f- and \w-scans'
_diffrn_radiation_type           MoK\a
_diffrn_radiation_wavelength     0.71073
_diffrn_reflns_av_R_equivalents  0.0239
_diffrn_reflns_av_unetI/netI     0.0165
_diffrn_reflns_Laue_measured_fraction_full 0.468
_diffrn_reflns_Laue_measured_fraction_max 0.437
_diffrn_reflns_limit_h_max       8
_diffrn_reflns_limit_h_min       -8
_diffrn_reflns_limit_k_max       5
_diffrn_reflns_limit_k_min       -5
_diffrn_reflns_limit_l_max       9
_diffrn_reflns_limit_l_min       -9
_diffrn_reflns_number            2198
_diffrn_reflns_point_group_measured_fraction_full 0.468
_diffrn_reflns_point_group_measured_fraction_max 0.437
_diffrn_reflns_theta_full        25.242
_diffrn_reflns_theta_max         26.396
_diffrn_reflns_theta_min         4.601
_exptl_absorpt_coefficient_mu    0.079
_exptl_absorpt_correction_T_max  1.00000
_exptl_absorpt_correction_T_min  0.14720
_exptl_absorpt_correction_type   multi-scan
_exptl_absorpt_process_details
;
CrysAlisPro 1.171.42.49 (Rigaku Oxford Diffraction, 2022)
Empirical absorption correction using spherical harmonics,
implemented in SCALE3 ABSPACK scaling algorithm.
;
_exptl_crystal_colour            colourless
_exptl_crystal_density_diffrn    1.141
_exptl_crystal_description       disc
_exptl_crystal_F_000             168
_exptl_crystal_size_max          0.37
_exptl_crystal_size_mid          0.36
_exptl_crystal_size_min          0.27
_refine_diff_density_max         0.097
_refine_diff_density_min         -0.112
_refine_diff_density_rms         0.026
_refine_ls_extinction_method     none
_refine_ls_goodness_of_fit_ref   1.121
_refine_ls_hydrogen_treatment    constr
_refine_ls_matrix_type           full
_refine_ls_number_parameters     48
_refine_ls_number_reflns         386
_refine_ls_number_restraints     0
_refine_ls_restrained_S_all      1.121
_refine_ls_R_factor_all          0.0403
_refine_ls_R_factor_gt           0.0353
_refine_ls_shift/su_max          0.000
_refine_ls_shift/su_mean         0.000
_refine_ls_structure_factor_coef Fsqd
_refine_ls_weighting_details
'w=1/[\s^2^(Fo^2^)+(0.0644P)^2^+0.0373P] where P=(Fo^2^+2Fc^2^)/3'
_refine_ls_weighting_scheme      calc
_refine_ls_wR_factor_gt          0.0950
_refine_ls_wR_factor_ref         0.0988
_reflns_Friedel_coverage         0.000
_reflns_number_gt                352
_reflns_number_total             386
_reflns_threshold_expression     'I > 2\s(I)'
_cod_data_source_file            lq5055.cif
_cod_data_source_block           diethyl_ether_phase_beta_1_85GPa
_cod_depositor_comments
'Adding full bibliography for 1570433--1570452.cif.'
_cod_database_code               1570439
_shelx_shelxl_version_number     2018/3
_shelx_space_group_comment
;
The symmetry employed for this shelxl refinement is uniquely defined
by the following loop, which should always be used as a source of
symmetry information in preference to the above space-group names.
They are only intended as comments.
;
_exptl_absorpt_special_details
;
Data were collected at room temperature (295(2) K) and pressure of 1.85(2) GPa
(1850000 kPa).
;
_olex2_refinement_description
;
1. Fixed Uiso
 At 1.2 times of:
  All C(H,H) groups
 At 1.5 times of:
  All C(H,H,H) groups
2.a Secondary CH2 refined with riding coordinates:
 C1(H11,H12), C3(H31,H32)
2.b Idealised Me refined as rotating group:
 C2(H21,H23,H22), C4(H42,H41,H43)
;
_shelx_res_file
;
TITL 3ede_a.res in P2(1)/c
    3ede.res
    created by SHELXL-2018/3 at 11:49:51 on 22-Dec-2022
REM Old TITL 3ede in P2(1)/c
REM SHELXT solution in P2(1)/c: R1 0.176, Rweak 0.437, Alpha 0.086
REM <I/s> 0.466 for 32 systematic absences, Orientation as input
REM Formula found by SHELXT: C4 O
CELL 0.71073 6.8268 8.1428 7.7731 90 93.443 90
ZERR 4 0.0003 0.0017 0.0003 0 0.004 0
LATT 1
SYMM -X,0.5+Y,0.5-Z
SFAC C H O
UNIT 16 40 4

L.S. 50
PLAN  10
CONF
BOND
list 4
fmap 2 53
MORE -1
BOND $H
ACTA
REM <olex2.extras>
REM <HklSrc "%.\\3ede.hkl">
REM </olex2.extras>

WGHT    0.064400    0.037300
FVAR       2.84901
O1    3    0.178122    0.315159    0.167976    11.00000    0.03024    0.01828 =
         0.03987   -0.00340    0.01141   -0.00264
C1    1    0.075185    0.453932    0.230173    11.00000    0.03160    0.02592 =
         0.03194   -0.00413    0.00152    0.00138
AFIX  23
H11   2    0.034261    0.525699    0.135100    11.00000   -1.20000
H12   2    0.159911    0.515689    0.311258    11.00000   -1.20000
AFIX   0
C2    1   -0.100896    0.392163    0.317184    11.00000    0.02805    0.05128 =
         0.03975   -0.00510    0.00919    0.00404
AFIX 137
H21   2   -0.181221    0.327688    0.237235    11.00000   -1.50000
H23   2   -0.175377    0.483714    0.355583    11.00000   -1.50000
H22   2   -0.058707    0.325581    0.414383    11.00000   -1.50000
AFIX   0
C3    1    0.345148    0.367237    0.081993    11.00000    0.02616    0.05466 =
         0.03481    0.00359    0.00936   -0.00229
AFIX  23
H31   2    0.424305    0.440801    0.155581    11.00000   -1.20000
H32   2    0.304025    0.425712   -0.022745    11.00000   -1.20000
AFIX   0
C4    1    0.462692    0.219075    0.039277    11.00000    0.02948    0.03262 =
         0.03645   -0.00268    0.00628   -0.00126
AFIX 137
H42   2    0.384451    0.148172   -0.035782    11.00000   -1.50000
H41   2    0.501668    0.161254    0.143395    11.00000   -1.50000
H43   2    0.577325    0.252798   -0.017171    11.00000   -1.50000
AFIX   0
HKLF 4




REM  3ede_a.res in P2(1)/c
REM wR2 = 0.0988, GooF = S = 1.121, Restrained GooF = 1.121 for all data
REM R1 = 0.0353 for 352 Fo > 4sig(Fo) and 0.0403 for all 386 data
REM 48 parameters refined using 0 restraints

END

WGHT      0.0644      0.0373

REM Highest difference peak  0.097,  deepest hole -0.112,  1-sigma level  0.026
Q1    1   0.0130  0.3494  0.2455  11.00000  0.05    0.08
Q2    1   0.3019  0.5288  0.0214  11.00000  0.05    0.08
Q3    1   0.4457  0.1409 -0.0225  11.00000  0.05    0.08
Q4    1   0.3200  0.1627  0.1297  11.00000  0.05    0.08
Q5    1   0.5058  0.0372 -0.0752  11.00000  0.05    0.08
Q6    1   0.4382  0.3649 -0.0829  11.00000  0.05    0.07
Q7    1   0.5437  0.2672 -0.0934  11.00000  0.05    0.07
Q8    1  -0.2008  0.6264  0.4211  11.00000  0.05    0.07
Q9    1  -0.1799  0.2445  0.2702  11.00000  0.05    0.07
Q10   1   0.0710  0.6781  0.1484  11.00000  0.05    0.07
;
_shelx_res_checksum              67173
_shelx_hkl_file
;
   0   0   2 2062.72   19.36
   0   0   2 2053.11   19.75
   0   0  -2 2038.97   19.15
   0   0  -2 2081.20   19.37
   0   0  -2 2024.82   19.54
   0   0   2 2059.97   19.70
   0   0  -3   -1.69    1.14
   0   0   3   -0.55    0.76
   0   0   3   -0.87    0.97
   0   0  -3   -0.05    0.90
   0   0   3    0.43    0.87
   0   0  -3   -0.96    0.98
   0   0   3   -0.21    0.81
   0   0  -3   -0.92    1.16
   0   0   3   -0.43    0.82
   0   0   4   -0.10    1.11
   0   0  -4   -0.29    1.51
   0   0   4    0.25    1.27
   0   0  -4    0.80    1.25
   0   0   4    0.12    1.07
   0   0   4   -1.88    1.41
   0   0   4   -0.73    1.18
   0   0  -4   -0.05    1.43
   0   0  -4    0.42    1.38
   0   0  -5    2.37    2.17
   0   0   5   -1.62    1.79
   0   0  -5    2.50    2.25
   0   0   5   -0.31    1.60
   0   0   5    2.06    1.72
   0   0   5    0.38    1.55
   0   0  -5   -0.21    2.02
   0   0   5   -0.71    1.94
   0   0   6  172.35   16.12
   0   0   6  126.55    9.11
   0   0   6  157.45   10.47
   0   0  -6  145.48    9.57
   0   0   6  161.58   10.56
   0   0  -6  152.16    9.94
   0   0  -6  149.19    9.98
   0   0  -7    2.31    3.07
   0   0  -7   -4.24    3.15
   0   0   7   -1.74    3.31
   0   0  -7   -1.78    3.77
   0   0   7    1.57    3.18
   0   0   7    1.70    2.82
   0   0   8  243.93   17.84
   0   0  -8  218.99   15.79
   0   0  -8  278.53   17.44
   0   0   8  317.13   20.43
   0   0  -8  266.07   17.62
   0   0   8  271.85   20.10
   0  -1   2 7281.72   36.42
   0   1  -2 7201.81   39.50
   0   1  -2 7294.83   39.12
   0   1  -2 7238.18   39.00
   0  -1   2 7181.77   39.06
   0  -1   2 7334.61   40.75
   0   1  -3   77.90    4.19
   0  -1   3   80.34    4.93
   0   1  -3   77.52    4.81
   0   1  -3   73.77    4.77
   0  -1   3   86.50    4.58
   0  -1   3   86.94    5.23
   0   1  -3   78.33    4.12
   0  -1   3   76.94    4.87
   0  -1   3   78.68    4.10
   0   1  -3   71.87    4.77
   0   1   4   33.29    5.14
   0  -1   4   40.37    4.18
   0   1  -4   39.03    4.04
   0   1  -4   39.01    4.16
   0   1  -4   48.51    3.85
   0  -1   4   40.57    4.19
   0  -1   4   45.49    4.62
   0   1  -4   48.34    3.95
   0  -1   4   47.88    3.81
   0   1  -4   44.61    4.34
   0  -1   4   45.17    3.78
   0  -1   5   59.26    4.87
   0  -1   5   58.70    4.91
   0  -1   5   51.48    5.61
   0   1  -5   51.74    5.24
   0  -1   5   59.41    5.75
   0   1  -5   57.00    5.57
   0   1  -5   52.88    4.51
   0  -1   5   62.53    5.91
   0  -1  -5   45.26    5.75
   0   1   5   44.78    6.44
   0   1  -5   55.75    5.78
   0   1  -5   60.53    4.92
   0   1  -6  127.11    8.97
   0   1  -6  142.53    9.91
   0  -1   6  142.81    9.77
   0  -1   6  152.70   10.01
   0  -1   6  153.11   10.02
   0   1  -6  147.08    9.98
   0   1  -7   78.82    7.90
   0  -1   7   79.27    8.30
   0  -1   7   77.01    7.86
   0  -1   7   68.51    7.64
   0   1  -7   80.03    7.89
   0   1  -7   82.47    8.37
   0   1  -8   40.63    6.95
   0   1  -8   51.03    7.69
   0  -1   8   52.54    7.66
   0   1  -8   49.22    7.23
   0  -1   8   50.08    7.39
   0  -1   8   52.23    7.76
   0  -1   9   58.06    9.56
   0   1  -9   37.40    7.87
   0  -1   9   56.84    9.53
   0  -1   9   57.14   10.14
   0   1  -9   42.62    8.46
   0   1  -9   63.62    9.82
   0  -2   3   15.84    2.56
   0   2  -3   13.24    2.52
   0   2  -3   17.67    2.69
   0   2  -3   16.92    2.79
   0  -2   3   10.53    2.52
   0  -2   3   13.47    1.93
   0  -2   3   16.62    2.66
   0   2  -3   12.09    2.53
   0  -2   3   18.11    2.44
   0  -2   4  100.31    6.88
   0  -2   4  116.45    7.10
   0   2  -4  107.60    7.01
   0   2  -4  121.13    7.31
   0  -2   4  117.36    7.55
   0   2  -4  116.86    6.34
   0  -2   4  117.34    6.09
   0   2  -4  121.99    7.56
   0  -2   4  110.04    7.03
   0  -2   5  125.00    8.25
   0  -2   5  133.85    8.75
   0   2  -5  121.26    8.27
   0  -2   5  134.75    8.10
   0   2  -5  127.30    8.30
   0   2  -5  124.82    8.26
   0  -2   5  134.06    8.76
   0   2  -5  118.96    7.23
   0  -2   6  311.49   14.53
   0   2  -6  283.16   13.43
   0  -2   6  297.75   14.13
   0  -2   6  304.54   14.53
   0   2  -6  269.89   13.46
   0   2  -6  305.61   14.47
   0   2  -7   35.87    6.38
   0  -2   7   35.30    5.67
   0   2  -7   34.22    5.63
   0  -2   7   46.48    6.92
   0   2  -7   38.41    6.10
   0  -2   7   29.31    5.47
   0   2  -8  107.26   10.54
   0   2  -8   83.33    9.36
   0   2  -8   93.60    9.52
   0  -2   8   98.21    9.95
   0  -2   8   98.92    9.96
   0  -2   8   96.73   10.30
   0   2  -9  112.11   11.56
   0  -2   9  126.91   12.51
   0  -2   9  120.20   12.13
   0  -2   9  118.85   11.65
   0   2  -9  128.30   12.79
   0   2  -9   98.59   10.75
   0   3  -4  111.94    8.87
   0   3  -4  153.60   10.76
   0  -3   4  148.57    9.72
   0  -3   4  145.34   10.24
   0  -3   5   92.48    8.30
   0  -3   5  105.59    8.68
   0  -3   5   89.36    8.23
   0   3  -5   76.92    7.53
   0   3  -5  103.43    9.73
   0   3  -5   85.46    7.25
   0   3  -5   88.03    8.20
   0  -3   6  124.10   10.47
   0   3  -6  110.91    9.51
   0   3  -6  121.28   10.28
   0  -3   6  125.11   10.03
   0   3  -6  141.51   11.45
   0  -3   6  135.78   10.75
   0  -3   7   22.61    5.40
   0  -3   7   26.73    5.71
   0   3  -7   16.77    5.22
   0   3  -7   25.15    6.09
   0  -3   7   24.34    5.91
   0   3  -7   20.17    5.93
   0  -3   8  415.69   21.59
   0  -3   8  402.70   21.44
   0   3  -8  414.62   22.29
   0   3  -8  401.88   20.92
   0  -3   8  431.22   22.42
   0   3  -8  401.84   21.45
   0  -3   9   58.85    9.17
   0   3  -9   64.68   10.88
   0  -3   9   69.07   10.33
   0   3  -9   55.17    9.56
  -1   0   7    2.99    3.94
   1   0  -7   -4.45    5.23
   1   0  -7    3.48    3.53
   1   0  -7   -0.77    3.73
  -1   0   7   -1.34    2.89
   1   0  -6  641.80   21.60
   1   0  -6  677.65   22.37
   1   0  -6  655.68   21.31
  -1   0   6  663.53   20.14
  -1   0   6  653.72   22.45
  -1   0   6  671.77   22.71
  -1   0   6  629.97   24.09
   1   0  -5    3.85    3.45
   1   0  -5   -5.31    2.93
   1   0  -5    1.76    2.31
  -1   0   5   -0.73    1.84
  -1   0   5    1.21    1.89
  -1   0   5   -1.22    2.21
  -1   0   5    0.94    1.78
   1   0  -4 1267.35   22.58
  -1   0   4 1115.55   21.93
  -1   0   4 1258.44   24.18
   1   0  -4 1152.56   22.48
   1   0  -4 1255.59   22.57
  -1   0   4 1193.03   21.16
   1   0  -4 1143.73   22.04
  -1   0   4 1209.19   22.93
  -1   0   3    0.33    1.01
  -1   0   3    0.11    0.95
   1   0  -3    1.89    1.37
   1   0  -3    0.43    1.22
  -1   0   3   -0.28    0.82
   1   0  -3   -0.66    1.01
   1   0  -3   -1.85    1.44
  -1   0   3   -0.41    1.05
  -1   0   2  607.86   11.64
  -1   0   2  601.07   12.77
   1   0  -2  660.36   12.12
   1   0  -2  648.37   12.16
  -1   0   2  629.21   11.86
   1   0  -2  580.41   11.13
  -1   0  -3    0.06    0.86
   1   0   3   -0.10    0.83
  -1   0  -3    1.18    0.86
   1   0   3    0.30    0.80
   1   0   3    0.76    0.94
  -1   0  -3   -2.06    1.60
   1   0   3    0.02    1.05
   1   0   3    0.10    1.04
  -1   0  -3   -1.81    1.27
   1   0   3    1.11    0.90
  -1   0  -4  747.92   16.32
   1   0   4  737.53   17.04
  -1   0  -4  679.34   15.65
  -1   0  -4  702.18   13.29
   1   0   4  769.26   16.69
   1   0   4  780.72   13.47
  -1   0  -4  728.69   17.29
   1   0   4  750.98   17.92
   1   0   4  773.91   16.92
   1   0   4  697.05   13.53
  -1   0  -5    3.93    3.26
  -1   0  -5   11.81    3.37
   1   0   5    1.18    3.14
   1   0   5   -0.36    1.45
  -1   0  -5    8.63    2.99
   1   0   5   16.63    4.14
  -1   0  -5    3.47    3.04
   1   0   5   11.80    3.19
   1   0   6    0.40    2.08
   1   0   6    0.63    2.38
  -1   0  -6   -1.51    2.30
   1   0   6   -0.80    2.22
  -1   0  -6    4.19    2.72
  -1   0  -6    3.76    2.41
   1   0   6   -1.42    2.83
  -1   0  -6    1.29    2.69
  -1   0  -7   -1.54    2.91
   1   0   7    1.81    3.12
   1   0   7   -0.93    2.86
   1   0   7    3.18    2.95
  -1   0  -7   -4.71    3.67
   1   0   7    2.33    2.97
  -1   0  -7    4.29    3.71
  -1   0  -7    2.46    2.92
  -1   0  -8    8.45    5.44
  -1   0  -8    1.20    3.44
   1   0   8   13.66    5.71
   1   0   9    0.81    4.37
  -1   0  -9    5.66    6.29
   1   0   9   -5.78    8.38
  -1  -1   9   34.98    7.83
  -1  -1   9   26.79    8.36
   1   1  -9   35.97    8.17
   1   1  -9   37.08    8.92
  -1  -1   9   35.09    9.39
   1   1  -9   20.85    6.62
   1   1  -8   -9.44    5.32
   1   1  -8    5.61    3.75
  -1  -1   8    5.98    4.72
  -1  -1   8    4.38    3.18
  -1  -1   8    1.07    2.90
   1   1  -8    1.35    4.08
  -1  -1   7   41.85    6.21
  -1  -1   7   47.31    6.55
   1   1  -7   46.61    6.43
   1   1  -7   57.82    6.99
   1   1  -7   49.63    7.05
  -1  -1   7   50.02    6.84
  -1  -1   6  335.08   14.76
  -1  -1   6  329.33   14.80
   1   1  -6  337.80   15.22
   1   1  -6  335.36   14.57
   1   1  -6  317.02   14.50
  -1  -1   6  291.51   13.61
  -1  -1   6  315.39   13.08
   1   1  -6  311.14   12.72
   1   1  -5  161.50    9.11
  -1  -1   5  144.48    8.42
   1   1  -5  141.96    7.91
  -1  -1   5  144.95    9.04
   1   1  -5  153.96    8.66
  -1  -1   5  163.54    9.57
  -1  -1   5  146.80    8.32
   1   1  -5  156.87    9.32
   1   1  -4  230.26    9.19
   1   1  -4  229.04    9.81
   1   1  -4  231.51   10.03
  -1  -1   4  247.73    9.67
  -1  -1   4  238.93    7.26
   1   1  -4  242.78    7.43
  -1  -1   4  233.26   10.09
   1   1  -4  244.28    9.52
  -1  -1   4  249.20    9.40
  -1  -1   4  246.09   10.35
  -1  -1   4  246.41    7.79
  -1  -1   3  191.56    7.96
  -1  -1   3  194.10    6.19
   1   1  -3  191.56    6.18
  -1  -1   3  193.95    7.24
   1   1  -3  184.59    7.85
   1   1  -3  195.34    7.21
   1   1  -3  193.49    7.86
   1   1  -3  199.29    7.58
  -1  -1   3  187.15    7.49
  -1  -1   3  184.86    7.79
  -1  -1   2 1941.57   18.60
   1   1  -2 1940.61   20.88
   1   1  -2 1995.80   18.49
   1   1  -2 1994.23   21.05
   1   1  -2 1931.61   21.06
  -1  -1   2 1964.55   20.95
   1   1  -2 1981.30   18.45
  -1  -1   2 1982.50   21.16
  -1  -1   2 1971.72   21.28
  -1  -1   1  880.31   12.06
  -1  -1  -1 2410.38   20.96
   1  -1   2  834.12   14.36
   1  -1   2  852.82   14.93
   1   1   2  800.50   13.56
   1   1   2  811.30   14.58
   1   1   2  864.73   14.83
   1  -1   2  831.98   14.72
  -1   1  -2  818.99   14.73
   1   1   2  914.72   15.86
  -1   1  -2  833.86   13.80
   1  -1   2  832.89   13.71
  -1  -1  -2  818.66   14.30
  -1   1  -2  857.08   14.56
  -1   1  -3   -0.83    1.05
  -1  -1  -3    0.65    1.22
   1   1   3    0.45    0.78
  -1  -1  -3   -1.20    1.03
   1   1   3    1.00    1.21
   1  -1   3   -0.78    1.17
   1  -1   3    0.68    0.86
   1  -1   3   -1.88    1.29
   1   1   3    1.20    1.14
  -1   1  -3   -0.33    1.12
   1  -1   3    0.27    1.01
   1  -1   3    0.09    0.76
  -1   1  -3   -0.67    1.16
  -1   1  -3    0.02    1.13
   1   1   3    0.51    0.86
  -1   1  -3    1.35    1.46
   1  -1   4 2066.13   28.96
   1   1   4 2185.82   25.73
  -1   1  -4 2198.61   29.42
  -1   1  -4 2138.38   30.61
  -1   1  -4 2187.52   28.98
  -1  -1  -4 2139.82   27.91
   1  -1   4 2186.99   28.74
  -1  -1  -4 2190.05   30.86
   1   1   4 2259.25   32.87
   1   1   4 2138.52   32.05
   1  -1   4 2231.68   25.93
   1   1   4 2156.84   28.51
  -1   1  -4 2211.10   22.59
   1  -1   4 2187.20   31.00
  -1   1  -4 2128.39   28.32
   1  -1   4 2174.16   30.10
   1   1   5    5.25    2.60
  -1   1  -5    5.16    2.60
  -1  -1  -5    5.33    2.78
   1  -1   5    6.38    2.36
  -1   1  -5    3.78    2.53
   1  -1   5    4.43    2.19
  -1   1  -5    7.69    2.40
   1  -1   5    6.24    2.09
  -1  -1  -5    6.16    2.32
   1  -1   5    6.26    2.23
   1   1   5    4.85    1.95
  -1   1  -5    7.13    2.60
   1   1   5    6.05    2.60
   1   1   6   69.64    7.48
   1   1   6   67.53    7.72
  -1   1  -6   49.84    5.44
  -1   1  -6   59.06    7.14
   1  -1   6   64.86    6.53
   1  -1   6   57.33    6.25
   1  -1   6   61.52    6.28
   1   1   6   62.19   11.92
  -1   1  -6   50.88    6.12
   1  -1   6   58.54    6.62
  -1  -1  -6   55.13    6.34
  -1   1  -6   61.24    6.34
  -1  -1  -6   61.75    7.03
  -1   1  -7   16.14    4.48
  -1   1  -7   12.29    4.05
  -1   1  -7   20.47    4.81
  -1  -1  -7   15.52    4.59
   1   1   7   21.99    5.57
   1  -1   7   17.53    4.98
   1  -1   7   19.37    4.59
   1   1   7   24.72    6.34
  -1  -1  -7    9.55    4.46
   1  -1   7   15.37    3.65
  -1   1  -8   80.27    9.44
   1  -1   8   71.57    8.70
   1  -1   8   78.45    8.86
  -1   1  -8   80.89    9.02
   1  -1   8   72.32    8.52
  -1   1  -8   62.01    7.64
  -1   1  -9   43.34    7.99
   1  -1   9   46.69    8.14
   1  -1   9   37.78    8.24
  -1   1  -9   43.78    8.28
  -1  -2   9   93.34   10.92
   1   2  -9   94.60   10.85
  -1  -2   9   95.90   11.96
   1   2  -9   94.65   11.13
  -1  -2   9  108.44   12.17
   1   2  -9   68.51    9.64
   1   2  -8   61.48    8.23
   1   2  -8   63.13    8.19
  -1  -2   8   68.52    8.53
   1   2  -8   61.83    8.05
  -1  -2   8   57.93    8.19
  -1  -2   8   67.03    8.54
  -1  -2   7  413.02   18.67
   1   2  -7  381.48   17.57
  -1  -2   7  382.01   17.36
   1   2  -7  407.32   18.35
  -1  -2   7  417.65   18.89
   1   2  -7  413.41   17.40
  -1  -2   6  139.12   10.09
  -1  -2   6  127.14    9.66
   1   2  -6  124.34    9.57
   1   2  -6  112.27    9.03
   1   2  -6  126.99    9.18
   1   2  -6  116.39    8.37
  -1  -2   6  125.53    9.24
  -1  -2   6  114.44    8.21
  -1  -2   5  188.43    9.92
  -1  -2   5  190.21   10.88
   1   2  -5  187.44    9.62
   1   2  -5  186.01   10.34
   1   2  -5  207.81   10.52
   1   2  -5  190.77   10.56
  -1  -2   5  217.02   11.56
  -1  -2   5  197.71   10.07
  -1  -2   4 1428.76   21.44
  -1  -2   4 1540.71   27.25
  -1  -2   4 1430.64   24.72
   1   2  -4 1463.11   19.47
  -1  -2   4 1450.57   24.08
   1   2  -4 1435.69   25.57
   1   2  -4 1466.95   25.72
   1   2  -4 1472.34   24.43
   1   2  -4 1398.19   24.10
  -1  -2   4 1432.19   26.26
   1   2  -3  640.51   15.29
   1   2  -3  631.97   14.04
  -1  -2   3  658.33   15.31
  -1  -2   3  666.52   15.71
   1   2  -3  627.92   12.32
   1   2  -3  588.08   14.25
   1   2  -3  613.62   14.58
  -1  -2   3  645.72   13.77
  -1  -2   3  589.89   14.68
  -1  -2   3  654.87   14.07
  -1  -2   2  331.46    9.99
   1   2  -2  343.00    9.61
  -1  -2   2  315.40    9.46
   1   2  -2  311.47    9.65
   1   2  -2  299.61    9.90
  -1  -2   2  304.91    9.42
   1   2  -2  319.40    9.75
  -1  -2   2  318.53    8.46
  -1  -2   2  316.34   10.09
  -1   2  -3 6623.20   61.06
   1  -2   3 6260.09   59.38
  -1   2  -4  552.03   13.58
   1  -2   4  579.49   17.79
  -1   2  -4  521.21   15.86
  -1   2  -4  554.83   16.84
   1  -2   4  573.35   17.43
   1  -2   4  534.30   16.13
  -1   2  -4  556.42   17.44
   1  -2   4  466.22   14.77
   1  -2   5    4.87    2.66
  -1   2  -5    1.22    2.43
  -1   2  -5    3.32    2.36
   1  -2   5    4.38    2.45
   1  -2   5    5.94    2.61
  -1   2  -5    3.96    2.60
   1  -2   5    3.95    1.97
  -1   2  -5    4.81    2.41
   1  -2   6   75.44    7.66
  -1   2  -6   64.10    7.25
  -1   2  -6   70.65    7.61
   1  -2   6   64.84    6.80
  -1   2  -6   70.72    6.82
   1  -2   6   69.91    6.68
   1  -2   6   49.70    6.05
  -1   2  -6   60.11    6.69
  -1   2  -7   49.36    6.95
   1  -2   7   50.83    7.16
  -1   2  -7   60.11    7.46
   1  -2   7   50.42    7.13
   1  -2   7   41.65    6.72
  -1   2  -7   47.10    6.36
   1  -2   8  105.02   10.90
   1  -2   8   89.45    9.54
  -1   2  -8  115.69   11.49
  -1   2  -8  100.92   10.34
  -1   2  -8   85.25    9.21
   1  -2   8  107.64   10.48
  -1   2  -9    7.83    4.91
   1  -2   9   -1.63    4.35
  -1   2  -9    7.28    5.21
   1  -2   9    2.39    4.10
  -1  -3   9  124.00   12.52
   1   3  -9  146.71   13.69
  -1  -3   8   26.92    5.50
   1   3  -8   26.12    6.04
  -1  -3   8   26.51    5.73
  -1  -3   8   36.92    6.73
   1   3  -8   21.18    5.57
   1   3  -8   31.68    6.46
  -1  -3   7  478.65   23.91
  -1  -3   7  410.52   21.13
   1   3  -6 1013.27   25.50
   1   3  -6 1069.85   28.00
  -1  -3   6  949.68   27.47
  -1  -3   6 1077.13   29.25
   1   3  -6 1018.16   27.33
  -1  -3   6 1000.17   27.39
  -1  -3   6 1036.52   26.82
   1   3  -6  994.28   27.57
  -1  -3   5  110.55    8.72
   1   3  -5   97.59    7.50
   1   3  -5  122.74    9.36
  -1  -3   5   98.28    8.17
   1   3  -5   97.67    8.11
   1   3  -5  100.17    8.05
  -1  -3   5  104.06    7.83
  -1  -3   5  108.71    8.79
   1   3  -4  219.96    9.14
   1   3  -4  210.55   10.73
  -1  -3   4  203.32   10.91
  -1  -3   4  211.41   10.78
  -1  -3   4  207.87   10.15
   1   3  -4  206.15   11.15
   1   3  -4  205.55   11.06
  -1  -3   4  193.53   10.62
   1   3  -3  743.62   21.70
  -1  -3   3  819.91   19.90
   1   3  -3  772.78   21.51
  -1  -3   3  731.43   19.89
   1  -3   6   56.02    7.83
  -1   3  -6   52.28    7.68
   1  -3   6   56.53    7.82
  -1   3  -6   56.35    8.45
  -1   3  -7   25.11    6.10
  -1   3  -7   17.07    5.60
   1  -3   7   28.39    6.18
   1  -3   7   26.58    6.08
  -1   3  -8   41.19    8.88
   1  -3   8   43.94    8.77
  -1   3  -8   45.46    8.54
   1  -3   8   53.00    9.31
  -1   3  -9   -5.83    6.42
   1  -3   9   10.04    6.85
  -1  -4   8   65.97    9.93
  -1  -4   8   75.58   10.70
   1   4  -8   63.76   10.46
  -1  -4   7   40.88    7.79
  -1  -4   7   32.24    6.17
  -1  -4   7   39.01    7.05
   1   4  -7   23.03    5.21
   1   4  -7   24.98    6.31
  -1  -4   6  204.63   14.30
   1   4  -6  182.58   14.32
   1   4  -6  197.85   14.37
  -1  -4   6  215.93   13.20
  -2   0   5    2.67    2.35
   2   0  -5   -0.18    2.56
  -2   0   5    1.36    2.20
   2   0  -5   -0.08    2.19
  -2   0   5    1.72    1.84
   2   0  -5    0.51    2.32
  -2   0   4 2719.55   39.51
   2   0  -4 2609.06   39.52
   2   0  -4 2711.22   35.58
   2   0  -4 2712.72   38.63
   2   0  -4 2842.62   39.36
  -2   0   4 2864.66   39.18
  -2   0   4 2681.54   37.47
   2   0  -3    1.81    1.87
  -2   0   3    4.63    2.68
   2   0  -3    8.04    3.09
  -2   0   3    0.52    1.40
   2   0  -3   -1.63    2.07
   2   0  -2 3879.74   46.37
  -2   0   2 3920.55   35.24
   2   0  -2 3872.82   35.72
   2   0  -1   -0.53    0.82
   2   0  -1   -1.12    1.03
   2   0   0 1020.31   15.39
   2   0   0 1060.45   15.17
  -2   0   0 1041.27   15.44
   2   0   0 1031.21   15.38
  -2   0  -1    1.23    0.92
   2   0   1    1.01    0.78
   2   0   1   -0.62    0.59
  -2   0  -1    1.07    1.06
   2   0   1   -0.04    0.79
   2   0   1    2.07    1.09
  -2   0  -2  499.64   11.44
  -2   0  -2  518.89   12.07
   2   0   2  539.85   12.47
   2   0   2  493.76   12.40
   2   0   2  518.89   11.53
   2   0   2  511.94   11.89
  -2   0  -2  493.90   12.20
  -2   0  -3   -1.71    1.76
  -2   0  -3   -1.43    1.24
  -2   0  -3    0.36    1.11
   2   0   3   -0.94    1.07
   2   0   3    0.05    1.61
   2   0   3   -0.18    0.97
  -2   0  -3   -1.46    1.67
  -2   0  -3   -2.29    2.07
   2   0   3    0.04    1.18
   2   0   3   -0.12    1.37
   2   0   3   -1.24    1.49
  -2   0  -4 9790.04   67.92
  -2   0  -4 9847.41   58.16
  -2   0  -4 9845.12   58.16
   2   0   4 9626.29   58.91
   2   0   4 9922.76   59.58
   2   0   4 9743.30   58.81
  -2   0  -4 9850.44   68.11
  -2   0  -4 9964.00   58.86
   2   0   4 9944.73   69.14
   2   0   4 9999.00   67.95
   2   0   4 9745.83   58.27
  -2   0  -4 9902.04   57.60
   2   0   5    2.28    1.74
  -2   0  -5   -1.53    2.39
  -2   0  -5   -0.84    1.90
   2   0   5    1.90    2.17
  -2   0  -5    0.97    2.23
   2   0   5    4.16    2.56
  -2   0  -5    2.84    2.28
  -2   0  -6  242.84   12.96
   2   0   6  240.00   13.16
  -2   0  -6  234.91   13.03
   2   0   6  230.79   12.71
  -2   0  -7   -3.94    3.86
  -2   0  -7    0.48    3.36
   2   0   7   -0.94    2.77
   2   0   7   -1.43    2.57
   2   0   8   -3.87    4.73
   2   0   8   -9.46    7.32
  -2   0  -8   -2.34    4.81
  -2   0  -8    2.47    4.28
   2   1  -8   20.13    6.81
   2   1  -8   32.94    7.93
  -2  -1   8   16.02    5.48
  -2  -1   8   15.74    6.19
   2   1  -8    9.86    5.21
   2   1  -7   57.29    7.96
  -2  -1   7   42.95    6.58
   2   1  -7   57.93    7.81
  -2  -1   7   59.53    7.23
  -2  -1   7   47.45    7.92
  -2  -1   7   60.88    7.99
   2   1  -7   60.70    7.29
   2   1  -7   64.39    7.92
   2   1  -6   42.80    5.47
  -2  -1   6   42.46    5.62
   2   1  -6   48.32    6.41
   2   1  -6   44.14    6.42
  -2  -1   6   45.94    6.25
   2   1  -6   42.11    5.25
  -2  -1   6   52.48    6.89
  -2  -1   6   38.39    5.59
   2   1  -5   41.09    4.73
  -2  -1   5   45.53    5.04
  -2  -1   5   43.61    5.31
   2   1  -5   46.39    5.68
   2   1  -5   53.36    5.71
  -2  -1   5   41.12    5.04
  -2  -1   5   48.01    5.53
   2   1  -5   43.24    4.59
   2   1  -4 1236.05   23.65
  -2  -1   4 1258.94   23.62
   2   1  -4 1202.96   20.83
   2   1  -4 1278.35   20.31
  -2  -1   4 1194.86   23.21
   2   1  -4 1201.04   22.68
  -2  -1   4 1218.19   22.05
  -2  -1   4 1245.23   23.08
   2   1  -4 1278.71   23.66
   2   1  -3 1329.62   21.54
  -2  -1   3 1360.50   22.37
  -2  -1   3 1305.75   21.27
   2   1  -3 1377.83   20.16
   2   1  -3 1355.99   17.58
   2   1  -3 1346.74   22.12
  -2  -1   3 1329.19   18.98
   2   1  -3 1301.66   21.14
  -2  -1   3 1346.54   21.67
  -2  -1   2  267.02    8.97
   2   1  -2  265.40    6.81
   2   1  -2  260.98    8.78
  -2  -1   2  259.83    8.10
   2   1  -2  251.15    7.97
   2   1  -2  259.77    8.51
   2   1  -2  267.71    8.19
  -2  -1   2  253.88    8.16
   2   1  -1  447.04    9.39
   2   1  -1  442.02   10.45
  -2  -1   1  422.48    9.84
   2   1  -1  424.90    9.45
   2   1  -1  453.90   10.11
   2   1   0  986.86   15.02
   2   1   0 1006.71   15.17
   2   1   0 1026.65   15.48
   2   1   1  893.98   14.66
  -2  -1  -1  897.37   15.34
   2   1   1  925.44   15.78
   2   1   1  911.27   15.58
  -2  -1  -1  910.10   14.12
   2   1   1  920.31   14.08
   2   1   2 3817.73   34.23
  -2  -1  -2 3729.74   28.26
   2   1   2 3831.02   27.25
   2  -1   2 3888.99   38.27
   2   1   2 3776.69   34.12
   2  -1   2 3893.98   38.41
   2   1   2 3764.05   30.64
  -2  -1  -2 3770.91   30.20
  -2  -1  -2 3764.20   34.00
   2   1   2 3800.13   34.55
  -2   1  -2 3734.38   37.82
  -2  -1  -3  920.92   18.12
   2   1   3  906.20   13.85
   2   1   3  902.36   12.45
   2   1   3  921.98   17.86
  -2   1  -3  930.61   19.39
  -2   1  -3  943.11   19.52
   2  -1   3  920.49   19.43
   2   1   3  868.04   18.66
  -2  -1  -3  915.36   17.70
  -2   1  -3  879.87   16.22
   2  -1   3  953.40   16.85
   2   1   3  940.88   18.30
   2   1   3  862.66   17.09
  -2  -1  -3  892.00   13.82
   2  -1   3  901.59   16.95
   2   1   4  477.11   14.24
  -2   1  -4  519.44   15.67
  -2   1  -4  502.83   13.62
  -2   1  -4  527.25   15.82
  -2  -1  -4  491.83   14.69
   2  -1   4  505.39   15.52
  -2  -1  -4  531.23   15.01
   2   1   4  496.69   15.51
   2  -1   4  515.08   15.70
  -2   1  -4  562.49   15.96
   2   1   4  533.80   15.91
   2  -1   4  507.04   13.06
  -2  -1  -4  511.38   12.62
   2   1   4  503.60   13.83
   2  -1   4  507.82   13.96
   2   1   4  501.01   12.40
   2  -1   4  540.78   15.38
   2  -1   5   17.96    3.81
  -2   1  -5   19.96    3.48
   2  -1   5   18.09    3.26
  -2   1  -5   20.09    3.95
   2  -1   5   22.20    3.99
  -2   1  -5   20.47    3.80
   2  -1   5   17.00    3.24
   2   1   5   21.68    4.16
  -2  -1  -5   16.44    3.65
   2   1   5   19.12    3.62
  -2   1  -5   18.64    3.62
  -2   1  -6  495.07   17.76
  -2   1  -6  511.18   19.45
  -2  -1  -6  481.90   18.58
   2   1   6  541.66   21.00
   2  -1   6  506.08   18.34
   2  -1   6  506.09   19.33
   2   1   6  546.93   21.08
   2  -1   6  511.48   18.17
  -2   1  -6  507.62   17.37
  -2  -1  -7    3.50    5.30
   2   1   7   12.87    5.35
   2  -1   7   -1.85    3.05
  -2   1  -7    6.31    3.57
  -2   1  -7    7.20    4.64
   2  -1   7    0.47    2.68
  -2  -1  -7    0.96    3.67
   2   1   7    7.13    5.40
  -2  -1  -8   44.80    7.95
  -2   1  -8   49.63    8.30
   2  -1   8   53.54    8.00
   2   1   8   67.47   10.99
  -2  -1  -8   62.45    9.87
  -2  -2   9   65.79    9.83
   2   2  -9   49.50    8.93
   2   2  -8   15.75    4.90
  -2  -2   8   24.03    5.93
  -2  -2   8   41.06    7.67
   2   2  -8   31.64    6.43
  -2  -2   7  213.79   13.87
  -2  -2   7  193.26   13.26
   2   2  -7  201.94   13.35
   2   2  -7  208.42   13.32
   2   2  -7  187.07   11.77
  -2  -2   7  186.55   12.10
   2   2  -6  200.25   12.00
  -2  -2   6  200.49   12.35
  -2  -2   6  202.21   11.64
   2   2  -6  208.05   10.71
  -2  -2   6  215.65   12.79
  -2  -2   6  203.25   11.26
   2   2  -6  203.46   11.41
   2   2  -6  212.49   12.39
  -2  -2   5 1037.80   24.37
   2   2  -5 1075.09   25.38
  -2  -2   5 1067.64   25.88
  -2  -2   5 1072.18   26.03
   2   2  -5 1030.95   21.97
   2   2  -5 1086.96   24.56
  -2  -2   5 1041.58   22.41
   2   2  -5 1019.74   24.79
  -2  -2   4   58.54    5.69
  -2  -2   4   57.43    5.69
  -2  -2   4   60.17    5.72
   2   2  -4   60.44    5.71
  -2  -2   4   52.46    4.47
   2   2  -4   54.75    4.73
   2   2  -4   59.72    5.60
  -2  -2   4   53.76    4.45
   2   2  -4   56.46    4.66
   2   2  -4   59.38    5.77
   2   2  -3  637.87   15.83
  -2  -2   3  636.38   15.91
  -2  -2   3  646.21   14.91
   2   2  -3  605.99   14.55
   2   2  -3  607.33   12.51
  -2  -2   3  640.57   16.15
   2   2  -3  629.38   15.49
  -2  -2   3  605.34   12.44
   2   2  -3  620.89   16.00
  -2  -2   3  648.35   16.27
  -2  -2   2 4575.94   38.98
  -2  -2   2 4551.71   36.80
   2   2  -2 4500.30   37.72
   2   2  -2 4641.42   35.73
   2   2  -2 4520.96   30.63
   2   2  -2 4546.08   36.44
  -2  -2   2 4520.08   38.57
  -2  -2   2 4554.62   36.23
   2   2  -2 4565.00   40.38
   2   2  -2 4582.54   39.38
  -2  -2   2 4533.48   33.84
  -2  -2   1  838.30   16.14
  -2  -2   1  782.03   14.00
  -2  -2   1  768.04   15.05
  -2  -2   1  766.45   14.38
   2   2  -1  807.70   15.17
   2   2  -1  833.53   13.16
  -2  -2   1  796.94   12.75
   2   2  -1  783.96   14.37
   2   2  -1  750.16   13.66
   2   2  -1  767.31   15.07
  -2  -2   0   95.24    5.53
   2   2   0   91.19    5.26
   2   2   0   91.46    5.23
   2   2   0   82.78    4.93
  -2  -2   0   81.31    4.50
   2   2   0  109.05    5.48
  -2  -2   0   74.03    4.94
  -2  -2  -1    6.34    2.11
  -2  -2  -1    4.63    1.72
   2   2   1    4.27    1.36
   2   2   1    3.83    1.41
   2   2   1    6.88    2.12
   2   2   1    3.05    1.27
   2   2   2 2573.66   36.18
  -2  -2  -2 2547.75   34.01
   2   2   2 2492.41   35.69
   2   2   2 2636.64   36.61
   2   2   2 2668.23   35.26
   2   2   3 4542.17   71.69
  -2  -2  -3 4386.17   43.60
   2   2   3 4491.93   53.16
   2   2   3 4280.05   97.16
   2   2   3 4490.23   51.36
  -2   2  -4  469.81   18.80
   2  -2   4  460.69   17.97
  -2  -2  -4  495.26   17.02
   2   2   4  476.38   20.28
   2  -2   4  505.37   19.24
  -2   2  -4  457.35   17.26
   2  -2   4  472.09   17.11
   2   2   4  447.82   18.47
   2  -2   5 1648.32   33.51
  -2  -2  -5 1602.15   35.36
  -2   2  -5 1545.92   33.23
   2  -2   5 1633.60   35.31
  -2   2  -5 1619.36   31.05
   2   2   5 1584.85   41.91
   2  -2   5 1661.71   32.37
  -2   2  -6  124.78   10.54
  -2   2  -6  117.79   10.08
  -2   2  -6  108.50    9.11
   2  -2   6  123.83    9.86
   2  -2   6  112.80   10.04
   2  -2   6  115.36    9.31
  -2   2  -7    2.74    3.35
   2  -2   7    0.03    3.59
  -2   2  -7   -2.31    3.79
   2  -2   7   -3.43    3.29
   2  -2   7    4.65    3.30
  -2   2  -8   53.17    8.33
   2  -2   8   63.31    9.13
  -2  -3   8  331.60   19.01
   2   3  -8  314.84   18.24
  -2  -3   8  315.51   18.71
   2   3  -8  329.21   18.79
  -2  -3   7  285.75   15.79
  -2  -3   7  274.70   16.14
   2   3  -7  245.05   13.79
   2   3  -7  293.11   16.32
  -2  -3   7  300.38   16.86
   2   3  -7  265.24   15.44
   2   3  -6   53.34    6.50
   2   3  -6   50.54    6.52
  -2  -3   6   44.19    6.25
   2   3  -6   36.58    6.03
  -2  -3   6   56.49    7.00
  -2  -3   6   51.95    6.78
   2   3  -5 1185.09   27.03
  -2  -3   5 1185.01   28.55
  -2  -3   5 1198.64   28.87
   2   3  -5 1204.51   28.14
   2   3  -5 1160.94   27.16
  -2  -3   5 1236.31   28.35
  -2  -3   4 1824.34   32.10
  -2  -3   4 1908.15   31.00
   2   3  -4 1798.99   27.77
   2   3  -4 1771.41   31.36
   2   3  -4 1807.62   31.15
   2   3  -4 1742.78   31.28
  -2  -3   4 1819.83   32.04
  -2  -3   4 1778.58   31.64
  -2  -3   3  882.28   21.07
   2   3  -3  907.44   19.99
  -2  -3   3  811.14   20.18
  -2  -3   3  895.49   17.06
   2   3  -3  933.24   21.09
   2   3  -3  869.35   20.84
  -2  -3   3  885.27   20.23
   2   3  -3  878.33   21.29
  -2  -3   3  899.25   20.93
  -2  -3   2   84.52    6.49
   2   3  -2   83.15    7.82
  -2  -3   2   90.95    6.87
   2   3  -2   98.79    7.60
   2   3  -2   91.90    6.77
  -2  -3   2   77.21    5.49
   2   3  -2  102.36    7.95
   2   3  -1 2636.52   62.08
  -2  -4   8  158.99   14.60
  -2  -4   8  170.87   15.06
   2   4  -8  166.61   14.50
   2   4  -8  171.58   15.42
   2   4  -8  180.14   15.60
  -2  -4   7  577.09   25.52
  -2  -4   7  489.95   21.78
  -2  -4   7  556.53   25.08
   2   4  -7  565.29   25.52
   2   4  -7  527.01   24.35
   2   4  -7  542.85   23.49
  -2  -4   6  160.30   12.27
  -2  -4   6  175.10   13.24
   2   4  -6  158.60   12.71
   2   4  -6  160.64   13.18
   2   4  -6  160.42   13.08
  -2  -4   6  165.63   12.76
  -2  -4   5   14.21    3.53
   2   4  -5    8.90    3.89
  -2  -4   5   20.01    4.58
  -2  -4   5   25.56    5.50
   2   4  -5   14.75    4.50
   2   4  -4  471.32   19.39
   2   4  -4  515.03   21.37
   2   4  -4  472.41   21.06
   3   0  -1    0.04    1.40
   3   0  -1    0.69    1.66
  -3   0   0 3734.92   37.52
   3   0   0 3859.00   39.95
   3   0   0 3754.35   34.09
   3   0   0 3802.85   37.48
   3   0   0 3758.23   37.53
  -3   0  -1   -1.28    2.03
  -3   0  -1    0.14    1.64
   3   0   1   -0.30    0.89
   3   0   1    0.53    1.16
   3   0   1    1.64    1.17
   3   0   1   -0.76    1.70
   3   0   1   -0.60    1.38
  -3   0  -2   64.17    5.17
  -3   0  -2   61.35    4.80
   3   0   2   50.26    5.24
  -3   0  -2   56.63    4.93
   3   0   2   54.40    4.95
   3   0   2   60.69    5.09
   3   0   2   56.70    4.23
   3   0   2   50.54    4.74
  -3   0  -3    0.98    2.19
  -3   0  -3    0.19    1.81
   3   0   3    0.18    1.19
  -3   0  -3   -0.77    2.04
   3   0   3    1.38    1.69
   3   0   3    0.95    1.44
   3   0   3   -1.46    1.74
   3   0   4   58.34    5.53
  -3   0  -4   56.66    6.14
  -3   0  -4   68.58    6.15
   3   0   4   55.60    5.79
   3   0   4   57.28    5.30
  -3   0  -4   58.10    5.70
   3   0   4   58.86    5.62
  -3   0  -5   -3.68    3.60
  -3   0  -5    1.45    3.01
   3   0   5   -4.07    2.48
   3   0   5    1.69    2.09
  -3   0  -6 2480.50   43.31
  -3   0  -6 2447.44   43.70
   3   0   6 2377.86   43.81
   3   0   6 2333.65   42.53
  -3   0  -7    4.86    4.07
  -3   0  -7   -0.61    3.28
   3   0   7   -1.18    3.08
   3   0   7   -4.34    3.67
  -3   0  -8   77.86    9.59
  -3   0  -8   67.91    9.23
   3   0   8   59.96    8.35
   3   0   8   68.03    9.10
  -3  -1   7  685.95   28.44
  -3  -1   7  775.64   28.72
  -3  -1   7  731.72   28.24
   3   1  -7  638.08   26.64
   3   1  -7  786.61   29.47
   3   1  -6   37.45    6.09
   3   1  -6   45.41    6.81
  -3  -1   6   38.55    6.18
  -3  -1   6   40.45    5.94
   3   1  -6   45.40    7.08
  -3  -1   6   35.37    5.51
   3   1  -5  101.61    8.23
   3   1  -5  109.26    9.14
  -3  -1   5   97.34    8.18
  -3  -1   5   91.31    7.57
  -3  -1   5  104.38    8.62
   3   1  -5   89.70    7.54
   3   1  -4   74.44    6.62
  -3  -1   4   67.73    6.14
  -3  -1   4   61.26    5.57
   3   1  -4   80.15    6.78
  -3  -1   4   70.60    6.36
   3   1  -4   68.94    5.92
   3   1  -4   61.31    5.78
   3   1  -3   48.19    4.65
   3   1  -3   44.02    4.16
  -3  -1   3   50.28    4.87
  -3  -1   3   40.99    3.98
   3   1  -3   43.03    4.40
   3   1  -3   45.99    3.39
  -3  -1   3   49.61    4.82
   3   1  -3   48.45    4.65
   3   1  -2 2684.86   28.65
   3   1  -2 2693.49   30.96
  -3  -1   2 2701.81   29.23
  -3  -1   2 2725.39   27.11
  -3  -1   2 2697.42   31.35
   3   1  -2 2540.26   30.79
  -3  -1   2 2717.13   28.09
   3   1  -2 2667.71   26.56
   3   1  -2 2611.89   26.63
   3   1  -2 2743.03   28.95
  -3  -1   1 1598.10   22.50
   3   1  -1 1606.25   23.01
  -3  -1   1 1594.31   22.15
   3   1  -1 1600.41   23.54
   3   1  -1 1628.73   22.19
  -3  -1   1 1575.24   17.04
   3   1  -1 1594.98   17.08
   3   1  -1 1551.68   21.36
   3   1   0    2.24    0.99
  -3  -1   0    3.60    1.65
  -3  -1   0   -0.36    1.20
  -3  -1   0    0.89    1.05
   3   1   0    1.65    1.14
   3   1   0    3.30    1.73
   3   1   0    0.52    0.92
   3   1   0    1.73    1.28
  -3  -1  -1  131.66    6.85
  -3  -1  -1  140.50    6.94
  -3  -1  -1  119.60    4.90
   3   1   1  137.74    7.01
   3   1   1  138.04    6.80
   3   1   1  132.32    7.26
   3   1   1  142.98    7.66
  -3  -1  -2   55.48    4.21
   3   1   2   59.21    5.42
   3   1   2   52.93    4.18
  -3  -1  -2   60.55    4.28
   3  -1   2   38.13    5.12
   3   1   2   62.55    5.22
  -3  -1  -2   55.62    4.87
   3   1   2   55.89    4.10
   3   1   2   50.87    4.91
  -3  -1  -3  254.38   11.04
  -3  -1  -3  267.89   11.73
  -3  -1  -3  260.16   10.24
   3   1   3  265.89   11.71
   3   1   3  263.45   10.19
   3   1   3  268.86   11.29
   3   1   3  260.30   11.21
  -3   1  -4  872.72   22.64
  -3  -1  -4  896.18   22.88
  -3  -1  -4  891.07   21.52
   3   1   4  884.30   21.61
  -3   1  -4  974.51   24.39
  -3  -1  -4  894.67   21.35
   3  -1   4  884.56   23.20
   3   1   4  953.50   23.91
   3  -1   4  911.08   22.69
   3   1   4  933.81   21.83
   3  -1   4  866.59   20.92
   3   1   4  895.47   21.35
  -3  -1  -5  464.33   16.49
  -3   1  -5  466.17   17.68
  -3  -1  -5  487.19   18.42
   3   1   5  448.25   16.25
  -3   1  -5  449.91   17.70
  -3  -1  -5  470.24   16.93
   3  -1   5  474.27   18.16
   3   1   5  467.60   18.15
   3  -1   5  439.89   17.25
   3   1   5  429.85   16.79
  -3   1  -6  321.86   15.89
  -3  -1  -6  335.12   16.67
  -3   1  -6  324.48   16.42
  -3  -1  -6  315.03   15.51
   3  -1   6  308.38   15.86
   3   1   6  307.58   16.06
   3  -1   6  298.54   15.53
   3   1   6  350.93   17.05
   3   1   7   39.18    6.78
   3  -1   7   18.90    4.87
  -3   1  -7   25.29    6.09
  -3   1  -7   10.66    4.30
  -3  -1  -7   13.16    4.97
   3  -1   7   13.50    4.51
   3   1   7   32.76    6.07
  -3  -1  -7   35.37    7.24
  -3  -1  -8  138.68   13.74
  -3   1  -8  102.74   11.36
  -3  -1  -8  110.98   12.24
  -3   1  -8  109.60   11.85
   3  -1   8  108.98   11.15
   3   1   8  137.67   16.48
   3  -1   8  103.21   11.39
   3   1   8  131.38   15.36
   3   2  -8  165.60   13.94
   3   2  -8  175.33   14.69
  -3  -2   8  170.81   14.66
  -3  -2   8  173.27   14.54
   3   2  -8  161.48   14.03
  -3  -2   8  157.36   13.88
  -3  -2   7   39.83    6.94
   3   2  -7   37.21    6.15
  -3  -2   7   35.93    6.68
   3   2  -7   43.16    7.17
  -3  -2   7   32.89    5.78
   3   2  -7   38.36    6.70
  -3  -2   6  183.97   11.89
  -3  -2   6  193.67   12.25
   3   2  -6  186.49   12.16
  -3  -2   6  173.86   11.76
   3   2  -6  186.98   11.93
   3   2  -6  162.61   10.94
   3   2  -5  460.68   16.90
  -3  -2   5  435.83   17.00
  -3  -2   5  467.26   17.29
  -3  -2   5  444.08   17.03
   3   2  -5  432.67   16.33
   3   2  -5  464.80   17.30
  -3  -2   4  576.00   18.32
  -3  -2   4  630.91   18.54
  -3  -2   4  631.12   17.35
  -3  -2   4  591.34   17.81
   3   2  -4  619.58   17.34
   3   2  -4  594.26   17.56
   3   2  -4  627.08   18.90
   3   2  -4  620.50   17.82
  -3  -2   3 3191.05   39.95
  -3  -2   3 3045.13   36.47
  -3  -2   3 3088.68   37.51
   3   2  -3 3142.92   38.06
  -3  -2   3 3168.75   36.87
   3   2  -3 3161.06   36.38
   3   2  -3 3201.33   36.11
   3   2  -3 3208.28   39.55
  -3  -2   2   80.40    5.13
  -3  -2   2   77.06    5.89
  -3  -2   2   74.51    5.16
  -3  -2   2   75.51    5.90
   3   2  -2   76.60    6.00
  -3  -2   2   71.63    4.87
  -3  -2   2   72.52    4.95
   3   2  -2   71.46    4.95
   3   2  -2   72.55    4.86
   3   2  -2   68.16    4.76
   3   2  -2   72.06    5.05
   3   2  -2   77.37    5.74
  -3  -2   1  707.38   15.64
  -3  -2   1  669.36   15.50
  -3  -2   1  732.44   12.73
  -3  -2   1  675.66   12.63
   3   2  -1  729.47   15.89
  -3  -2   1  704.14   16.92
   3   2  -1  720.02   16.90
   3   2  -1  719.71   15.84
   3   2  -1  674.81   12.48
   3   2  -1  728.49   12.26
   3   2  -1  710.04   15.63
  -3  -2   0 2623.96   31.77
  -3  -2   0 2644.12   27.97
   3   2   0 2493.03   30.78
  -3  -2   0 2619.58   31.56
   3   2   0 2529.07   30.86
   3   2   0 2565.53   26.69
   3   2   0 2617.44   31.46
   3   2   0 2669.06   27.24
  -3  -2  -1  150.71    8.11
  -3  -2  -1  150.29    7.83
   3   2   1  146.85    7.34
  -3  -2  -1  137.88    5.05
   3   2   1  150.19    7.33
   3   2   1  139.75    7.51
   3   2   1  137.73    5.39
   3   2   1  138.47    7.71
  -3  -2  -2   66.54    5.75
  -3  -2  -2   70.87    5.64
   3   2   2   61.60    5.47
   3   2   2   64.53    4.85
  -3  -2  -2   60.98    4.21
   3   2   2   68.33    5.60
   3   2   2   62.60    5.35
  -3  -2  -3    6.24    2.67
   3   2   3    5.75    2.13
  -3  -2  -3   11.24    2.59
   3   2   3    7.86    2.52
   3   2   3    8.00    2.78
   3   2   4  553.39   17.92
  -3  -2  -4  707.27   22.26
  -3  -2  -4  619.56   17.23
   3   2   4  569.66   19.37
   3   2   4  632.61   22.99
   3   2   4  707.32   23.05
  -3  -2  -5  964.87   24.69
   3  -2   5  841.53   29.18
   3   2   5 1102.98   30.98
   3  -2   5  762.71   27.94
   3   2   5  921.84   32.71
   3   2   5 1120.84   28.55
   3  -2   6   48.23    7.72
  -3   2  -6   66.88    9.20
   3  -2   6   61.95    8.79
  -3  -2  -6   68.11    8.40
   3   2   6   74.61   10.28
  -3   2  -7  337.87   20.71
   3  -2   7  356.47   21.26
   3  -2   7  329.09   20.40
   3  -2   8   21.63    7.90
   3  -2   8   13.77    5.39
   3   3  -8   49.23    7.62
  -3  -3   8   46.34    8.12
  -3  -3   8   58.16    8.95
   3   3  -8   58.08    8.62
  -3  -3   8   48.97    8.07
   3   3  -8   52.99    8.27
  -3  -3   7  331.24   17.76
   3   3  -7  371.69   18.93
  -3  -3   7  343.27   18.15
  -3  -3   7  367.03   19.04
   3   3  -7  315.12   17.20
   3   3  -7  327.67   17.17
   3   3  -6  632.96   22.31
  -3  -3   6  625.27   22.66
  -3  -3   6  582.93   21.97
  -3  -3   6  654.80   23.48
   3   3  -6  586.05   21.48
   3   3  -6  617.74   21.88
  -3  -3   5  431.48   17.84
  -3  -3   5  411.73   17.27
  -3  -3   5  403.56   17.00
   3   3  -5  383.06   16.08
   3   3  -5  395.75   16.92
   3   3  -5  377.62   15.85
   3   3  -4    7.57    3.52
   3   3  -4    2.13    2.60
  -3  -3   4   -0.70    2.43
  -3  -3   4    4.77    2.59
  -3  -3   4    3.53    2.10
   3   3  -4    4.62    2.18
  -3  -3   4    3.01    2.38
   3   3  -4    4.24    2.56
   3   3  -3 2401.85   36.22
  -3  -3   3 2410.50   36.38
  -3  -3   3 2438.20   36.16
   3   3  -3 2402.88   34.72
   3   3  -3 2487.75   34.78
   3   3  -3 2370.77   32.40
  -3  -3   3 2494.76   34.97
  -3  -3   3 2441.35   34.16
  -3  -3   2 2039.11   31.63
  -3  -3   2 2082.57   32.33
   3   3  -2 2004.84   31.53
   3   3  -2 2037.64   27.11
  -3  -3   2 2061.76   27.53
   3   3  -2 2065.96   31.46
   3   3  -2 2045.49   27.67
   3   3  -1 1054.42   28.89
  -3  -3   1 1016.93   21.92
  -3  -3   1 1013.16   22.46
   3   3  -1 1037.33   21.58
   3   3  -1  999.02   22.32
  -3  -3   1  991.43   16.86
   3   3  -1 1035.23   21.34
  -3  -3   1 1051.53   23.58
   3   3   0   16.90    3.51
  -3  -3   0   11.99    3.25
  -3  -3   0   10.64    2.95
   3   3   0   10.93    3.01
   3   3   0   11.13    2.99
   3   3   0   15.63    3.49
   3   3   1 1397.33   32.40
   3   3   1 1365.20   33.62
   3   3   1 1327.93   33.22
  -3  -3  -1 1424.05   30.20
   3   3   2  211.16   20.29
   3   3   2  195.71   17.73
   3   3   2  217.71   18.83
   3   4  -8   17.86    6.77
  -3  -4   8    3.49    4.11
   3   4  -8   11.31    6.19
  -3  -4   8   13.73    5.68
   3   4  -8   19.86    5.78
  -3  -4   8   10.34    4.75
  -3  -4   7  119.42   11.67
   3   4  -7  121.02   12.34
  -3  -4   7  121.99   12.15
  -3  -4   7  124.65   12.28
   3   4  -7  111.63   11.37
   3   4  -7  112.45   11.54
  -3  -4   6  234.44   15.37
  -3  -4   6  245.69   15.60
  -3  -4   6  264.11   16.17
   3   4  -6  225.75   15.03
   3   4  -6  254.51   16.05
   3   4  -6  241.74   15.62
  -3  -4   5 1454.88   35.52
  -3  -4   5 1439.42   35.18
   3   4  -5 1439.34   35.97
   3   4  -5 1566.26   37.21
   3   4  -5 1481.39   37.01
  -3  -4   5 1471.32   34.98
  -3  -4   4  141.39   10.60
   3   4  -4  156.05   10.82
   3   4  -4  172.63   11.78
  -3  -4   4  155.99   10.59
   3   4  -4  151.12   11.62
   3   4  -3    0.94    3.57
  -3  -4   3    6.14    2.34
   3   4  -3    8.76    3.51
  -3  -4   3   10.86    3.44
   3   4  -3    1.89    3.12
   3   4  -2  773.72   32.20
  -3  -4   2  753.76   18.03
   3   4  -2  797.94   31.43
   3   4  -2  816.83   36.64
   4   0   0 1808.78   30.01
   4   0   0 1945.02   33.94
   4   0   0 1825.77   33.31
  -4   0  -1   -1.22    2.13
   4   0   1    0.09    1.36
   4   0   1    0.69    1.63
   4   0   1    1.54    1.64
  -4   0  -2  857.49   21.42
  -4   0  -2  875.47   21.46
   4   0   2  899.68   21.50
   4   0   2  903.32   18.00
   4   0   2  865.04   21.58
   4   0   2  862.01   21.79
  -4   0  -3    0.10    2.25
  -4   0  -3   -1.69    2.54
  -4   0  -3   -1.99    2.45
   4   0   3   -1.12    1.85
   4   0   3    0.02    1.67
   4   0   3    2.90    2.36
   4   0   3    1.15    1.77
   4   0   4   27.47    4.29
   4   0   4   28.68    4.79
   4   0   4   26.86    3.98
   4   0   4   28.69    4.64
  -4   0  -5   -1.53    3.10
  -4   0  -5   -4.02    3.36
  -4   0  -5   -2.76    3.34
   4   0   5    7.22    3.88
   4   0   5   -0.91    2.32
   4   0   5   -3.14    2.39
   4   0   6   -3.31    3.46
  -4   0  -6   -2.15    3.85
  -4   0  -6   -3.46    3.82
   4   0   6    5.82    3.89
  -4   0  -7    1.67    4.73
  -4   0  -7   -4.41    4.52
   4   0   7    0.13    3.61
   4   0   7   -6.28    4.07
  -4   0  -8  435.73   22.63
   4   0   8  465.57   24.12
   4   0   8  484.58   24.55
   4   1  -5 1269.86   32.34
  -4  -1   5 1264.73   32.03
  -4  -1   5 1408.36   32.45
   4   1  -5 1421.22   34.44
  -4  -1   4  126.43    9.24
  -4  -1   4  128.33    8.73
   4   1  -4  124.75    9.21
   4   1  -4  157.29   12.28
   4   1  -4  146.24    9.56
  -4  -1   3  102.40    7.82
  -4  -1   3  105.50    6.75
   4   1  -3  126.47    8.75
   4   1  -3  119.37    7.32
   4   1  -3  117.06    7.98
  -4  -1   2   62.28    5.47
   4   1  -2   56.02    5.40
   4   1  -2   64.43    5.28
   4   1  -2   73.32    6.13
   4   1  -2   55.54    5.15
   4   1  -1    8.80    2.40
  -4  -1   1    8.03    2.67
  -4  -1   1    8.58    2.47
   4   1  -1    5.75    1.98
   4   1  -1    8.81    2.43
   4   1  -1    9.62    2.13
   4   1   0 1625.09   23.82
  -4  -1   0 1531.57   26.78
  -4  -1   0 1660.80   24.73
  -4  -1   0 1634.86   22.60
   4   1   0 1573.30   26.32
   4   1   0 1629.54   23.01
   4   1   0 1631.03   27.71
   4   1   0 1607.34   27.00
  -4  -1  -1   87.81    6.82
  -4  -1  -1   97.73    6.71
   4   1   1  103.39    6.63
   4   1   1  101.97    6.61
   4   1   1  102.78    7.38
   4   1   1  106.40    7.62
  -4  -1  -2   12.62    3.40
  -4  -1  -2    8.89    3.23
  -4  -1  -2   13.55    2.81
   4   1   2   11.98    2.59
   4   1   2   12.83    3.12
   4   1   2   10.62    3.25
   4   1   2    9.49    2.83
  -4  -1  -3   11.60    3.45
  -4  -1  -3   15.16    3.51
  -4  -1  -3   14.23    3.79
   4  -1   3   10.67    3.93
   4   1   3   12.78    3.31
   4  -1   3    9.41    2.76
   4  -1   3    8.46    3.76
   4   1   3   11.69    3.32
   4   1   3    8.77    2.91
  -4  -1  -4    9.72    3.17
  -4  -1  -4   15.47    3.86
  -4   1  -4   11.83    4.09
  -4  -1  -4   19.30    4.69
   4  -1   4   18.85    4.93
  -4  -1  -4   12.82    3.49
   4   1   4   15.32    3.85
   4  -1   4   16.81    3.86
   4  -1   4   19.03    4.14
   4   1   4    8.81    3.33
   4   1   4   15.50    4.01
  -4  -1  -5  146.11   10.33
  -4  -1  -5  171.18   11.04
  -4   1  -5  163.77   12.28
  -4  -1  -5  161.04   11.51
  -4  -1  -5  154.75   10.49
   4  -1   5  157.66   11.96
   4   1   5  155.82   11.49
   4  -1   5  161.90   11.46
   4   1   5  143.43    9.78
   4   1   5  151.28   10.14
   4   1   5  151.01   10.32
  -4   1  -6  179.00   13.72
  -4  -1  -6  165.45   12.79
  -4   1  -6  217.62   15.71
  -4  -1  -6  167.16   11.78
   4  -1   6  186.72   13.89
   4   1   6  174.61   12.84
   4  -1   6  160.29   12.42
   4   1   6  177.48   12.42
  -4   1  -7  242.34   17.25
  -4  -1  -7  194.56   14.60
  -4   1  -7  260.70   18.98
  -4  -1  -7  239.47   15.30
   4  -1   7  247.91   17.70
   4   1   7  212.46   15.33
   4  -1   7  235.23   16.50
   4   1   7  246.82   16.66
  -4   1  -8  160.71   16.36
  -4   1  -8  150.45   15.55
  -4  -1  -8  130.37   13.40
   4  -1   8  169.33   16.49
   4  -1   8  144.82   14.13
   4   1   8  145.09   15.94
  -4  -2   8   27.55    7.62
   4   2  -8   38.06    8.37
   4   2  -7   71.71    9.38
  -4  -2   7   68.96    9.60
  -4  -2   7   90.82   10.75
  -4  -2   7   55.12    7.96
   4   2  -7   78.22    9.98
   4   2  -7   72.89    9.21
   4   2  -6  343.98   17.43
  -4  -2   6  284.81   15.77
  -4  -2   6  308.27   16.27
   4   2  -6  276.71   15.24
  -4  -2   6  345.51   18.19
   4   2  -6  249.32   14.73
   4   2  -5   11.42    3.91
   4   2  -5   14.71    4.22
  -4  -2   5   10.42    3.53
  -4  -2   5   13.07    3.97
   4   2  -5   19.11    4.52
   4   2  -5   11.22    3.87
  -4  -2   5   11.52    3.74
  -4  -2   5   10.10    3.34
   4   2  -4  618.62   18.75
  -4  -2   4  525.63   18.41
  -4  -2   4  576.57   18.04
  -4  -2   4  543.82   18.09
   4   2  -4  553.25   18.24
  -4  -2   4  597.26   18.96
   4   2  -4  546.17   16.97
   4   2  -4  568.99   18.95
  -4  -2   3  786.75   21.33
  -4  -2   3  839.22   22.05
   4   2  -3  836.49   21.82
  -4  -2   3  786.14   19.08
   4   2  -3  863.78   19.30
   4   2  -3  865.22   22.08
  -4  -2   2  786.48   18.52
  -4  -2   2  781.61   20.07
  -4  -2   2  730.12   17.88
  -4  -2   2  795.01   21.15
   4   2  -2  774.65   20.74
   4   2  -2  762.20   17.71
   4   2  -2  757.50   18.41
   4   2  -2  771.59   19.55
  -4  -2   1 2612.51   35.58
  -4  -2   1 2652.15   35.05
  -4  -2   1 2622.62   33.64
  -4  -2   1 2669.18   37.76
   4   2  -1 2637.47   37.22
   4   2  -1 2652.07   34.79
   4   2  -1 2531.57   35.27
   4   2  -1 2639.37   33.52
  -4  -2   0  201.26   10.46
   4   2   0  205.36    8.45
  -4  -2   0  203.19    8.44
  -4  -2   0  192.85    8.46
  -4  -2   0  203.81   10.33
   4   2   0  199.29   10.25
   4   2   0  182.21    7.85
   4   2   0  201.06   10.26
   4   2   0  190.58   10.16
  -4  -2  -1  359.25   14.30
  -4  -2  -1  373.55   12.90
  -4  -2  -1  340.57   13.05
   4   2   1  369.93   13.44
   4   2   1  354.13   12.38
   4   2   1  369.66   14.43
   4   2   1  367.95   14.39
  -4  -2  -2  692.51   20.46
  -4  -2  -2  707.95   19.68
  -4  -2  -2  731.55   18.73
   4   2   2  734.93   18.18
   4   2   2  691.99   19.27
   4   2   2  702.51   20.50
   4   2   2  711.83   20.52
  -4  -2  -3    0.76    2.64
  -4  -2  -3    7.09    3.22
   4   2   3    8.02    3.23
   4   2   3    5.88    2.56
   4   2   3    4.43    2.62
  -4  -2  -4   13.93    4.26
  -4  -2  -4    7.98    3.47
   4   2   4   10.99    3.39
   4   2   4   11.49    3.48
   4   2   4    6.16    3.05
  -4  -2  -5   14.80    4.94
  -4  -2  -5   17.18    4.53
  -4  -2  -5    8.45    3.50
   4   2   5   13.54    4.26
   4   2   5    8.48    4.33
   4   2   5    6.17    3.38
  -4  -2  -6  143.91   12.58
   4   2   6  169.26   14.27
  -4  -2  -7  318.43   21.78
   4   2   7  292.47   24.41
   4   3  -8   -0.89    4.57
  -4  -3   8   -1.88    4.00
  -4  -3   8   -2.05    4.97
  -4  -3   8    2.77    4.22
   4   3  -8   -8.37    5.33
   4   3  -8    1.54    4.70
   4   3  -7   22.24    5.10
  -4  -3   7   15.96    4.79
   4   3  -7   20.89    5.86
  -4  -3   7   20.36    4.84
  -4  -3   7   20.73    5.46
   4   3  -7   17.92    5.81
   4   3  -6   36.12    6.17
  -4  -3   6   38.92    6.38
  -4  -3   6   43.40    7.02
   4   3  -6   38.92    6.45
  -4  -3   6   41.62    6.76
   4   3  -6   45.23    6.74
   4   3  -5  790.11   23.51
  -4  -3   5  810.49   25.57
  -4  -3   5  849.60   24.75
  -4  -3   5  850.80   24.33
   4   3  -5  850.10   23.67
  -4  -3   5  827.61   24.69
   4   3  -5  769.40   22.97
   4   3  -5  866.77   25.79
  -4  -3   4  966.83   26.48
  -4  -3   4  911.78   24.56
  -4  -3   4  913.27   23.63
   4   3  -4  974.97   25.52
   4   3  -4  960.95   23.79
   4   3  -4  938.08   25.59
  -4  -3   3  314.65   14.24
  -4  -3   3  302.09   14.04
   4   3  -3  319.60   14.44
   4   3  -3  308.63   13.87
   4   3  -2   24.70    4.17
  -4  -3   2   17.55    3.17
  -4  -3   2   25.72    4.43
  -4  -3   2   23.07    4.33
   4   3  -2   20.67    4.02
   4   3  -2   23.02    3.56
   4   3  -2   22.09    3.76
  -4  -3   1 2434.93   35.84
  -4  -3   1 2443.70   35.42
  -4  -3   1 2486.09   37.91
   4   3  -1 2403.43   36.65
   4   3  -1 2392.34   34.85
   4   3  -1 2391.42   34.94
   4   3  -1 2371.10   33.33
  -4  -3   0 1015.99   24.09
  -4  -3   0  922.27   20.26
  -4  -3   0 1073.05   24.95
   4   3   0  987.52   23.17
   4   3   0 1032.17   23.74
   4   3   0 1004.96   23.56
   4   3   0 1024.86   20.27
  -4  -3  -1  220.82   11.77
   4   3   1  208.70   10.66
   4   3   1  206.27   11.24
   4   3   1  219.00   11.70
  -4  -3  -1  208.72   11.55
  -4  -3  -2    1.21    2.43
   4   3   2    2.20    2.19
   4   3   2   -4.52    3.17
   4   3   2    3.74    2.92
   4   3   2    0.47    2.36
   4   3   3  426.52   22.71
   4   3   3  431.74   19.97
   4   3   3  387.62   18.42
  -4  -3  -3  403.77   18.52
   4   3   4   48.91    9.50
   4   3   4   38.84    8.97
   4   3   4   38.60    8.31
  -4  -4   7    6.32    3.46
   4   4  -7   11.01    5.32
  -4  -4   7   15.38    5.03
   4   4  -7    8.44    5.51
  -4  -4   7    7.99    4.49
   4   4  -7    6.57    4.74
   4   4  -6   26.67    6.48
  -4  -4   6   26.88    5.90
   4   4  -6   33.69    6.89
  -4  -4   6   33.58    6.42
  -4  -4   6   25.11    5.66
   4   4  -6   29.69    6.83
  -4  -4   5  221.18   14.43
  -4  -4   5  231.66   14.17
  -4  -4   5  253.86   14.70
   4   4  -5  244.42   14.58
   4   4  -5  247.82   14.90
   4   4  -5  214.66   14.62
  -4  -4   4  259.39   14.97
  -4  -4   4  274.82   14.91
   4   4  -4  289.10   16.01
   4   4  -4  275.23   15.17
  -4  -4   3 2125.28   40.45
  -4  -4   3 2157.47   40.91
   4   4  -3 2305.61   43.84
   4   4  -3 2190.30   42.54
  -4  -4   2   79.62    7.76
  -4  -4   2   67.41    7.39
   4   4  -2   93.46    9.52
   4   4  -2   89.77    9.02
   4   4  -2  102.17    8.93
   4   4  -1   17.87    4.95
  -4  -4   1   18.57    4.35
   4   4  -1   20.35    5.52
   4   4  -1   26.78    5.82
   4   4   0  697.39   32.79
   4   4   0  726.97   29.60
   4   4   0  726.15   34.69
  -4  -5   7   -1.78    3.94
   4   5  -6   19.04    8.24
  -4  -5   6   21.39    6.19
  -4  -5   6   12.52    4.72
   4   5  -5   -5.13    8.50
  -4  -5   5   -6.81    4.33
  -4  -5   5    1.55    2.81
   4   5  -5    2.09    5.17
   4   5  -4   31.74    9.88
   4   5  -4   27.18    8.71
   5   0   1   -1.54    2.51
   5   0   1   -3.22    2.83
   5   0   1    2.73    2.66
  -5   0  -2  266.77   14.09
   5   0   2  281.09   14.28
   5   0   2  272.32   14.65
   5   0   2  271.05   14.94
  -5   0  -3    5.87    3.99
  -5   0  -3    6.23    4.12
   5   0   3   -4.14    3.17
   5   0   3    0.51    2.66
   5   0   3   -1.19    2.68
  -5   0  -4  263.52   15.13
  -5   0  -4  252.69   14.94
   5   0   4  257.66   14.88
   5   0   4  260.70   14.70
   5   0   4  265.22   15.71
  -5   0  -5   -1.86    3.58
  -5   0  -5    5.41    4.31
   5   0   5   -0.86    3.33
   5   0   5   -4.91    3.61
   5   0   5    1.66    3.04
  -5   0  -6   16.51    5.63
   5   0   6   16.53    4.83
  -5   0  -7   -9.21    4.78
   5   0   7   -1.06    4.47
  -5  -1   4 2476.01   51.86
  -5  -1   3 1655.19   36.23
   5   1  -3 1621.28   40.18
  -5  -1   2   95.64    7.88
   5   1  -2  120.09    9.62
   5   1  -2  119.18    8.77
  -5  -1   1   42.64    5.61
  -5  -1   1   43.66    4.87
   5   1  -1   40.63    5.45
   5   1  -1   32.63    4.85
   5   1  -1   46.14    5.92
  -5  -1   0  108.92    8.50
   5   1   0  107.46    8.32
   5   1   0  100.72    8.19
   5   1   0  101.22    8.01
  -5  -1  -1   30.04    5.08
  -5  -1  -1   33.87    5.25
   5   1   1   31.35    4.36
   5   1   1   31.89    4.40
   5   1   1   25.94    4.61
   5   1   1   35.68    5.28
  -5  -1  -2  473.00   17.70
  -5  -1  -2  476.09   17.31
  -5  -1  -2  479.50   16.28
   5   1   2  498.69   16.70
   5   1   2  469.54   16.95
   5   1   2  448.12   17.65
   5   1   2  460.33   17.91
  -5  -1  -3   23.51    5.15
  -5  -1  -3   26.20    4.86
  -5  -1  -3   26.83    5.15
   5   1   3   27.41    4.81
   5   1   3   27.45    5.05
   5   1   3   27.14    4.85
  -5  -1  -4   20.90    5.43
  -5  -1  -4   15.80    3.99
  -5  -1  -4   10.04    3.94
   5   1   4   16.98    4.46
   5   1   4   16.82    4.88
   5   1   4   12.17    4.41
  -5  -1  -5    5.27    3.15
  -5  -1  -5   -2.17    4.09
  -5  -1  -5    1.02    3.82
   5   1   5    2.39    3.26
   5   1   5    6.78    3.65
   5   1   5    5.01    3.24
  -5  -1  -6   -1.36    4.49
   5  -1   6    6.80    5.51
   5   1   6    3.22    3.37
   5  -1   7   53.29   11.12
   5   1   7   63.34    9.60
   5   2  -6   95.98   12.71
   5   2  -6   64.78    9.08
  -5  -2   6   72.41    9.45
  -5  -2   5  114.97   10.29
  -5  -2   5  112.95    9.77
   5   2  -5  133.80   12.65
   5   2  -5  129.88   11.25
  -5  -2   4  483.44   19.19
  -5  -2   4  506.06   19.43
   5   2  -4  522.62   20.35
   5   2  -3   10.87    3.58
  -5  -2   3   11.23    3.77
  -5  -2   3    5.31    2.92
   5   2  -3    6.34    2.81
  -5  -2   2  752.06   20.35
  -5  -2   2  783.12   21.10
  -5  -2   2  755.02   21.26
  -5  -2   2  765.70   22.67
   5   2  -2  770.56   22.73
   5   2  -2  793.91   21.52
   5   2  -2  767.39   20.04
   5   2  -2  752.29   20.86
  -5  -2   1  330.06   14.26
  -5  -2   1  333.24   14.38
  -5  -2   1  348.92   13.60
  -5  -2   1  356.69   15.45
   5   2  -1  361.30   15.38
   5   2  -1  344.86   14.10
   5   2  -1  374.25   15.23
   5   2  -1  327.72   12.71
  -5  -2   0  395.09   16.23
  -5  -2   0  380.21   15.81
  -5  -2   0  379.94   15.91
   5   2   0  387.16   15.73
   5   2   0  375.17   15.31
   5   2   0  415.46   16.64
  -5  -2  -1  790.83   23.62
  -5  -2  -1  754.85   22.86
  -5  -2  -1  720.52   19.83
  -5  -2  -1  768.18   21.90
   5   2   1  745.08   21.46
   5   2   1  736.16   19.43
   5   2   1  780.95   23.13
   5   2   1  802.67   24.00
  -5  -2  -2  157.52   11.13
  -5  -2  -2  157.00   10.78
  -5  -2  -2  157.87   10.19
  -5  -2  -2  158.14    9.68
   5   2   2  154.44    9.38
   5   2   2  154.04    9.96
   5   2   2  151.53   10.80
   5   2   2  158.77   11.16
  -5  -2  -3  112.59   10.03
  -5  -2  -3  115.99    9.92
  -5  -2  -3  122.42    9.96
   5   2   3  116.20    9.58
   5   2   3  119.79    9.77
   5   2   3  113.94    9.69
  -5  -2  -4  190.32   12.81
  -5  -2  -4  186.81   12.49
  -5  -2  -4  186.39   12.82
   5   2   4  207.51   13.47
   5   2   4  185.58   12.48
   5   2   4  189.62   12.79
  -5  -2  -5    0.14    3.40
  -5  -2  -5    5.61    4.16
  -5  -2  -5    0.90    3.41
   5   2   5   -2.04    3.60
   5   2   5    2.67    3.46
   5   2   5    3.84    3.27
  -5  -2  -6   -1.26    4.50
   5   2   6   -0.06    4.36
   5   3  -7    8.15    4.06
  -5  -3   7   17.28    5.98
  -5  -3   7   12.58    5.37
   5   3  -7   26.39    7.89
   5   3  -6   -0.78    3.40
  -5  -3   6   -2.87    4.14
  -5  -3   5   73.59    8.57
  -5  -3   5   78.14    8.52
   5   3  -5   79.56    8.54
   5   3  -5   80.82    8.53
   5   3  -4    6.69    3.97
   5   3  -4    5.54    3.82
  -5  -3   3 1256.62   30.47
  -5  -3   3 1225.21   30.57
   5   3  -3 1256.28   30.82
  -5  -3   2  748.21   21.30
  -5  -3   2  810.12   22.37
  -5  -3   2  778.95   22.64
  -5  -3   2  798.15   24.57
   5   3  -2  750.98   23.32
   5   3  -2  744.20   20.54
   5   3  -2  808.38   22.48
   5   3  -2  753.89   21.55
  -5  -3   1  131.46    9.48
  -5  -3   1  132.72    9.79
  -5  -3   1  132.08    8.93
  -5  -3   1  127.12    9.80
   5   3  -1  122.63    9.51
   5   3  -1  130.47    9.04
   5   3  -1  137.37    9.81
   5   3  -1  136.57    8.71
  -5  -3   0   31.93    5.60
  -5  -3   0   29.66    5.13
   5   3   0   25.73    4.73
   5   3   0   28.01    4.65
   5   3   0   26.75    4.92
  -5  -3  -1 1402.88   32.51
  -5  -3  -1 1336.21   30.66
   5   3   1 1355.37   29.79
   5   3   1 1387.51   31.56
   5   3   1 1335.33   31.42
  -5  -3  -2  314.04   16.02
  -5  -3  -2  314.86   14.69
  -5  -3  -2  305.52   14.95
   5   3   2  288.22   13.90
   5   3   2  342.99   16.55
   5   3   2  296.11   15.40
   5   3   2  291.17   15.23
  -5  -3  -3   48.03    7.10
  -5  -3  -3   55.51    7.27
   5   3   3   70.84    8.80
   5   3   3   68.02    8.17
   5   3   3   61.59    7.56
  -5  -3  -4   61.02    9.76
  -5  -3  -4   41.33    9.01
   5   3   4   39.71    9.69
   5   3   4   72.64   11.57
  -5  -3  -5  274.94   18.52
  -5  -3  -5  266.53   18.32
   5   3   5  294.58   25.50
   5   3   5  260.99   39.03
   5   3   5  279.84   22.88
  -5  -4   6  207.80   15.24
   5   4  -6  164.32   13.63
   5   4  -5   41.75    7.35
  -5  -4   5   33.45    6.80
  -5  -4   5   37.42    7.14
   5   4  -5   25.63    5.57
   5   4  -4   23.99    5.40
  -5  -4   4   22.87    5.09
  -5  -4   4   17.78    4.94
   5   4  -4   23.11    5.32
  -5  -4   3  253.17   15.08
  -5  -4   3  269.93   15.52
   5   4  -3  274.46   16.26
   5   4  -3  257.33   15.10
  -5  -4   2  128.21   10.49
  -5  -4   2  136.68   11.09
   5   4  -2  145.35   11.65
   5   4  -2  129.70   10.39
  -5  -4   1 2066.26   42.02
   5   4  -1 2163.11   44.19
   5   4  -1 2089.83   53.49
   5   4  -1 2267.12   44.27
  -5  -4   1 2218.42   45.25
  -5  -4   0   47.34    8.05
  -5  -4   0   42.70    6.68
   5   4   0   51.53    7.56
   5   4   0   45.42    8.15
   5   4   0   55.51    8.08
   5   4   1  138.14   13.38
   5   4   1  135.33   14.70
   5   4   1  133.58   13.42
   5   4   2  429.03   32.24
   5   4   2  450.37   34.80
   5   4   2  422.56   33.83
   5   5  -6   10.65    6.91
   5   5  -5   11.19    7.04
  -5  -5   5    6.09    4.66
   5   5  -5    6.04    6.35
   5   5  -4   48.45   11.13
  -5  -5   4   41.41    7.43
   5   5  -4   59.47   10.82
   5   5  -3    3.15    7.62
   5   5  -3   18.58    9.45
   5   5  -2   28.87   13.55
   5   5  -2   63.04   15.85
   6   0   3   -1.96    4.46
   6   0   3   -2.70    3.93
   6   0   4   94.43   10.75
   6   0   4  105.06   11.31
  -6   0  -5   -9.42    6.56
  -6   0  -5    6.87    6.22
   6   0   5   -0.38    3.85
   6   0   5    0.99    3.99
   6   0   6   70.55   10.98
   6   1  -1  793.29   31.33
   6   1  -1  735.20   27.64
  -6  -1   0   26.26    5.71
   6   1   0   21.53    6.01
   6   1   0   23.99    5.13
   6   1   0   21.73    5.16
  -6  -1  -1    5.37    4.01
   6   1   1    5.46    3.92
   6   1   1    7.74    3.64
   6   1   1    5.79    3.53
  -6  -1  -2   57.59    7.84
  -6  -1  -2   71.98    8.51
   6   1   2   65.55    7.26
   6   1   2   67.03    8.17
   6   1   2   67.62    8.31
  -6  -1  -3   38.21    6.94
  -6  -1  -3   34.12    6.94
  -6  -1  -3   38.45    6.08
   6   1   3   34.78    5.78
   6   1   3   37.19    6.46
   6   1   3   33.66    5.71
  -6  -1  -4  141.79   12.10
  -6  -1  -4  128.94   11.72
  -6  -1  -4  136.33   11.90
   6   1   4  142.54   12.33
   6   1   4  138.65   11.98
   6   1   4  134.16   11.49
  -6  -1  -5   19.76    5.73
  -6  -1  -5   18.09    5.60
  -6  -1  -5   12.15    4.69
   6   1   5   21.91    6.15
   6   1   5   22.44    5.85
   6   1   5   15.03    5.14
  -6  -2   5   14.46    6.47
  -6  -2   5    9.73    7.21
   6   2  -4   75.72    9.90
  -6  -2   4   74.15    9.56
  -6  -2   4   68.93    9.05
   6   2  -4   77.91   10.58
   6   2  -3  153.27   12.68
  -6  -2   3  154.72   11.80
  -6  -2   3  163.94   12.42
   6   2  -3  178.46   13.22
   6   2  -2  254.33   14.86
  -6  -2   2  267.20   13.98
  -6  -2   2  283.12   15.41
  -6  -2   2  222.17   12.79
  -6  -2   2  246.42   14.48
   6   2  -2  249.82   14.73
   6   2  -2  266.26   14.33
   6   2  -2  281.39   15.61
  -6  -2   1   46.44    6.32
  -6  -2   1   55.89    7.34
  -6  -2   1   49.27    7.04
   6   2  -1   52.18    6.73
   6   2  -1   58.13    6.90
   6   2  -1   46.37    6.76
  -6  -2   0  603.54   21.93
  -6  -2   0  586.20   21.59
  -6  -2   0  597.15   21.80
   6   2   0  586.45   21.41
   6   2   0  572.38   20.90
   6   2   0  571.87   21.47
  -6  -2  -1   54.97    7.31
  -6  -2  -1   63.04    7.91
  -6  -2  -1   61.41    7.23
   6   2   1   55.92    6.74
   6   2   1   54.80    6.86
   6   2   1   59.58    7.42
  -6  -2  -2  160.66   12.47
  -6  -2  -2  157.53   12.24
   6   2   2  165.16   12.59
   6   2   2  155.33   12.04
  -6  -2  -3  302.50   17.32
  -6  -2  -3  311.64   17.52
  -6  -2  -3  288.17   16.07
   6   2   3  294.90   16.00
   6   2   3  282.02   16.51
   6   2   3  300.99   16.86
  -6  -2  -4  146.62   12.60
  -6  -2  -4  146.12   12.18
  -6  -2  -4  136.47   11.83
   6   2   4  131.58   11.49
   6   2   4  129.92   11.49
   6   2   4  129.08   11.42
  -6  -2  -5   38.24    7.36
  -6  -2  -5   35.63    7.63
  -6  -2  -5   28.13    6.02
   6   2   5   33.09    6.59
   6   2   5   29.41    6.57
   6   2   5   29.34    6.01
  -6  -2  -6   38.18    8.21
   6   2   6   38.99    9.04
   6   3  -6    0.69    4.54
  -6  -3   6   -1.58    4.26
   6   3  -5   36.47    7.19
  -6  -3   5   32.34    6.50
  -6  -3   5   27.26    6.01
   6   3  -5   35.49    7.05
   6   3  -4    0.78    2.96
  -6  -3   4    6.04    4.17
  -6  -3   4    1.82    3.49
   6   3  -4    3.19    3.71
  -6  -3   3  141.98   11.10
  -6  -3   3  145.19   11.58
   6   3  -3  145.25   11.61
   6   3  -3  134.60   10.34
  -6  -3   2    3.07    3.80
   6   3  -2   -1.43    3.25
   6   3  -2    0.72    2.95
  -6  -3   1  685.61   23.48
  -6  -3   1  755.08   24.65
  -6  -3   1  723.75   25.15
   6   3  -1  729.88   24.59
   6   3  -1  673.21   22.26
   6   3  -1  736.51   24.33
  -6  -3   0  310.27   16.39
  -6  -3   0  297.87   16.20
  -6  -3   0  289.64   16.00
   6   3   0  264.35   14.80
   6   3   0  285.30   15.20
   6   3   0  294.73   15.93
  -6  -3  -1   39.10    7.50
  -6  -3  -1   36.00    6.46
  -6  -3  -1   43.07    6.86
   6   3   1   39.09    6.28
   6   3   1   49.17    6.94
   6   3   1   35.92    6.27
  -6  -3  -2   52.47    7.85
  -6  -3  -2   43.66    7.14
   6   3   2   48.50    7.33
   6   3   2   43.70    7.15
  -6  -3  -3  461.60   21.58
  -6  -3  -3  506.53   21.95
   6   3   3  546.00   23.81
   6   3   3  516.74   23.07
   6   3   3  475.52   22.12
  -6  -3  -3  486.71   22.80
  -6  -3  -4   40.25    7.73
  -6  -3  -4   59.63    9.02
  -6  -3  -4   52.24    8.24
   6   3   4   59.90    9.31
   6   3   4   55.33    9.01
   6   3   4   68.91    9.54
  -6  -3  -5    5.30    7.25
  -6  -3  -5   27.69    7.64
   6   3   5   28.66    8.55
   6   3   5   34.51   10.39
   6   3   5   26.55    8.63
  -6  -4   5   74.96    9.79
  -6  -4   5   61.59    8.87
   6   4  -5   79.82   10.11
   6   4  -5   85.34   10.48
  -6  -4   4  186.78   13.91
  -6  -4   4  193.63   14.28
   6   4  -4  190.20   14.41
   6   4  -4  167.28   13.02
   6   4  -3   51.12    7.87
  -6  -4   3   69.29    8.48
  -6  -4   3   58.81    8.25
   6   4  -3   61.13    8.35
  -6  -4   2   37.88    7.73
   6   4  -2   41.05    7.30
  -6  -4   1  157.07   12.29
  -6  -4   1  182.41   13.81
   6   4  -1  174.60   13.53
   6   4  -1  178.97   13.73
   6   4  -1  181.53   13.72
  -6  -4   1  180.10   13.35
  -6  -4   0   27.18    6.44
  -6  -4   0   33.94    6.35
  -6  -4   0   40.41    6.98
   6   4   0   32.32    6.71
   6   4   0   41.31    7.77
   6   4   0   38.41    7.42
  -6  -4  -1 1316.57   37.04
  -6  -4  -1 1304.63   36.84
   6   4   1 1400.49   40.47
   6   4   1 1434.39   42.24
   6   4   1 1400.33   42.31
  -6  -4  -1 1347.24   39.15
  -6  -4  -2    5.87    4.45
   6   4   2    3.13    4.62
   6   4   2   13.23    7.55
   6   4   3  140.16   21.21
   6   4   3  108.92   20.85
  -6  -5   5   38.40    8.63
   6   5  -5   37.68    9.22
   6   5  -4    8.43    8.15
  -6  -5   4    0.93    4.22
  -6  -5   4    6.79    5.06
   6   5  -4   -1.82    5.52
   6   5  -3   -6.91    8.28
  -6  -5   3   12.04    6.39
   6   5  -3   -3.99    6.82
  -6  -5   2   74.37   10.70
   6   5  -2   85.07   14.87
   6   5  -1   25.92   14.43
   6   5  -1   -4.51    9.64
   7   1   1  210.49   18.05
   7   1   1  206.69   17.77
   7   1   2    6.23    4.67
   7   1   2   14.66    6.64
  -7  -1  -3   -5.59    5.75
   7   1   3    3.61    4.83
   7   1   3  -14.98    6.56
   7   1   3  -10.76    6.12
  -7  -1  -4   28.78    7.80
   7   1   4   40.42    8.85
   7   1   4   33.71    8.24
   7   1   4   25.20    7.41
   7   1   5   21.20    6.92
  -7  -2   3   -4.63    5.46
   7   2  -3   -9.47    6.32
  -7  -2   2   44.17    9.10
  -7  -2   2   44.58    8.08
   7   2  -2   38.05    8.48
  -7  -2   1  216.89   16.07
  -7  -2   1  181.06   14.12
   7   2  -1  196.14   15.78
   7   2  -1  202.49   15.72
   7   2  -1  194.89   15.34
  -7  -2   0   59.59    8.69
  -7  -2   0   56.68    8.10
  -7  -2   0   60.67    8.32
   7   2   0   61.97    9.12
   7   2   0   64.63    8.81
   7   2   0   54.87    8.07
  -7  -2  -1   81.11   10.49
  -7  -2  -1  121.77   12.93
  -7  -2  -1   86.61    9.86
   7   2   1   90.01   10.95
   7   2   1   88.26   10.28
  -7  -2  -2  352.97   19.84
  -7  -2  -2  345.74   19.62
   7   2   2  364.47   20.19
   7   2   2  350.87   19.81
  -7  -2  -3   12.72    5.47
  -7  -2  -3   13.68    5.82
   7   2   3   10.78    4.40
   7   2   3   10.87    4.95
  -7  -2  -4   45.08    8.56
  -7  -2  -4   49.94    8.53
  -7  -2  -4   52.79    9.13
   7   2   4   43.43    7.89
   7   2   4   38.47    7.45
   7   2   4   50.66    8.46
   7   3  -5   12.35    5.90
   7   3  -4    5.14    5.91
  -7  -3   4   -1.59    4.30
  -7  -3   4   12.48    5.57
   7   3  -4    2.88    5.62
  -7  -3   3   41.45    8.20
   7   3  -3   27.13    6.07
  -7  -3   2   -8.64    5.65
   7   3  -2   10.11    5.24
  -7  -3   1  116.47   11.10
  -7  -3   1  129.58   11.58
  -7  -3   1  107.77   11.19
   7   3  -1  100.67   10.34
   7   3  -1  109.15   10.31
   7   3  -1  108.63   10.61
  -7  -3   0    7.76    4.67
  -7  -3   0    4.50    4.14
  -7  -3   0   11.39    4.75
   7   3   0    4.89    3.46
   7   3   0    6.41    3.20
   7   3   0   14.67    5.19
  -7  -3  -1  293.57   18.00
  -7  -3  -1  302.08   18.16
  -7  -3  -1  318.05   18.22
   7   3   1  266.86   15.58
   7   3   1  299.52   17.55
   7   3   1  288.24   17.46
  -7  -3  -2   80.98    9.86
  -7  -3  -2   93.41   10.87
   7   3   2   89.50   10.24
   7   3   2   77.91    9.65
  -7  -3  -3    2.08    4.45
  -7  -3  -3    7.91    4.98
   7   3   3    8.65    4.94
   7   3   3    5.30    3.71
  -7  -4   4  135.71   13.10
   7   4  -4  113.99   11.89
  -7  -4   3  106.44   11.86
   7   4  -3   95.51   11.21
  -7  -4   2  100.22   11.26
   7   4  -2   93.41   10.66
  -7  -4   1   34.85    6.90
  -7  -4   1   29.55    7.24
  -7  -4   1   37.47    7.43
   7   4  -1   22.14    5.94
   7   4  -1   30.51    6.39
   7   4  -1   38.03    7.50
  -7  -4   0   24.99    6.73
  -7  -4   0   35.35    7.77
  -7  -4   0   31.33    6.93
   7   4   0   25.23    6.53
   7   4   0   32.12    6.87
   7   4   0   25.67    6.40
  -7  -4  -1   97.50   11.82
  -7  -4  -1   79.71   10.44
  -7  -4  -1   80.13   10.10
   7   4   1  106.09   12.91
   7   4   1   73.25    9.79
   7   4   1  111.10   12.94
  -7  -4  -2    6.22    6.69
  -7  -4  -2   -0.96    5.99
   7   4   2    1.69    6.52
   7   4   2   -2.23    6.20
  -7  -5   1   -1.32    5.75
   7   5  -1   -4.99   11.10
   7   5  -1   10.38   12.59
  -7  -5   0   45.92    9.70
   7   5   0   71.99   29.93
   7   5   0   50.00   17.50
  -8  -2   0   11.71    6.72
   8   2   1  106.74   14.62
  -8  -3   1   16.31    6.45
   8   3  -1   29.58    9.49
   8   3  -1   21.73    7.24
  -8  -3   0   13.93    7.12
  -8  -3   0    0.37    4.78
   8   3   0   16.96    6.94
   8   3   0    1.25    4.16
   0   0   0    0.00    0.00


TITL diethyl_ether_phase_beta_1_85GPa in P2(1)/c
REM P2(1)/c (#14 in standard setting)
CELL 0.71073   6.826831   8.142784   7.773134  90.0000  93.4432  90.0000
ZERR    4.00   0.000330   0.001695   0.000273   0.0000   0.0038   0.0000
LATT  1
SYMM -x, y+1/2,-z+1/2
SFAC C H O
UNIT 16.00 40.00 4.00
TREF
HKLF 4
END
_computing_structure_solution     'SHELXT 2018/2 (Sheldrick, 2018)'
;
_shelx_hkl_checksum              12047
_olex2_submission_special_instructions 'No special instructions were received'
loop_
_space_group_symop_operation_xyz
'x, y, z'
'-x, y+1/2, -z+1/2'
'-x, -y, -z'
'x, -y-1/2, z-1/2'
loop_
_atom_site_label
_atom_site_type_symbol
_atom_site_fract_x
_atom_site_fract_y
_atom_site_fract_z
_atom_site_U_iso_or_equiv
_atom_site_adp_type
_atom_site_occupancy
_atom_site_site_symmetry_order
_atom_site_calc_flag
_atom_site_refinement_flags_posn
_atom_site_refinement_flags_adp
_atom_site_refinement_flags_occupancy
_atom_site_disorder_assembly
_atom_site_disorder_group
O1 O 0.17812(13) 0.3152(3) 0.16798(12) 0.0291(11) Uani 1 1 d . . . . .
C1 C 0.0752(2) 0.4539(4) 0.23017(19) 0.0298(12) Uani 1 1 d . . . . .
H11 H 0.034261 0.525699 0.135100 0.036 Uiso 1 1 calc R U . . .
H12 H 0.159911 0.515689 0.311258 0.036 Uiso 1 1 calc R U . . .
C2 C -0.1009(2) 0.3922(4) 0.3172(2) 0.0394(11) Uani 1 1 d . . . . .
H21 H -0.181221 0.327688 0.237235 0.059 Uiso 1 1 calc R U . . .
H23 H -0.175377 0.483714 0.355583 0.059 Uiso 1 1 calc R U . . .
H22 H -0.058707 0.325581 0.414383 0.059 Uiso 1 1 calc R U . . .
C3 C 0.3451(2) 0.3672(4) 0.08199(19) 0.0382(12) Uani 1 1 d . . . . .
H31 H 0.424305 0.440801 0.155581 0.046 Uiso 1 1 calc R U . . .
H32 H 0.304025 0.425712 -0.022745 0.046 Uiso 1 1 calc R U . . .
C4 C 0.4627(3) 0.2191(4) 0.0393(2) 0.0327(12) Uani 1 1 d . . . . .
H42 H 0.384451 0.148172 -0.035782 0.049 Uiso 1 1 calc R U . . .
H41 H 0.501668 0.161254 0.143395 0.049 Uiso 1 1 calc R U . . .
H43 H 0.577325 0.252798 -0.017171 0.049 Uiso 1 1 calc R U . . .
loop_
_atom_site_aniso_label
_atom_site_aniso_U_11
_atom_site_aniso_U_22
_atom_site_aniso_U_33
_atom_site_aniso_U_23
_atom_site_aniso_U_13
_atom_site_aniso_U_12
O1 0.0302(9) 0.018(4) 0.0399(7) -0.0034(6) 0.0114(5) -0.0026(6)
C1 0.0316(10) 0.026(4) 0.0319(7) -0.0041(9) 0.0015(6) 0.0014(10)
C2 0.0280(11) 0.051(4) 0.0397(8) -0.0051(11) 0.0092(7) 0.0040(9)
C3 0.0262(11) 0.055(4) 0.0348(8) 0.0036(11) 0.0094(8) -0.0023(10)
C4 0.0295(11) 0.033(4) 0.0365(8) -0.0027(10) 0.0063(7) -0.0013(9)
loop_
_atom_type_symbol
_atom_type_description
_atom_type_scat_dispersion_real
_atom_type_scat_dispersion_imag
_atom_type_scat_source
C C 0.0033 0.0016 'International Tables Vol C Tables 4.2.6.8 and 6.1.1.4'
H H 0.0000 0.0000 'International Tables Vol C Tables 4.2.6.8 and 6.1.1.4'
O O 0.0106 0.0060 'International Tables Vol C Tables 4.2.6.8 and 6.1.1.4'
loop_
_geom_angle_atom_site_label_1
_geom_angle_atom_site_label_2
_geom_angle_atom_site_label_3
_geom_angle
_geom_angle_site_symmetry_1
_geom_angle_site_symmetry_3
_geom_angle_publ_flag
C3 O1 C1 110.3(2) . . ?
O1 C1 H11 110.1 . . ?
O1 C1 H12 110.1 . . ?
O1 C1 C2 108.1(3) . . ?
H11 C1 H12 108.4 . . ?
C2 C1 H11 110.1 . . ?
C2 C1 H12 110.1 . . ?
C1 C2 H21 109.5 . . ?
C1 C2 H23 109.5 . . ?
C1 C2 H22 109.5 . . ?
H21 C2 H23 109.5 . . ?
H21 C2 H22 109.5 . . ?
H23 C2 H22 109.5 . . ?
O1 C3 H31 110.0 . . ?
O1 C3 H32 110.0 . . ?
O1 C3 C4 108.7(3) . . ?
H31 C3 H32 108.3 . . ?
C4 C3 H31 110.0 . . ?
C4 C3 H32 110.0 . . ?
C3 C4 H42 109.5 . . ?
C3 C4 H41 109.5 . . ?
C3 C4 H43 109.5 . . ?
H42 C4 H41 109.5 . . ?
H42 C4 H43 109.5 . . ?
H41 C4 H43 109.5 . . ?
loop_
_geom_bond_atom_site_label_1
_geom_bond_atom_site_label_2
_geom_bond_distance
_geom_bond_site_symmetry_2
_geom_bond_publ_flag
O1 C1 1.430(3) . ?
O1 C3 1.421(2) . ?
C1 H11 0.9700 . ?
C1 H12 0.9700 . ?
C1 C2 1.501(3) . ?
C2 H21 0.9600 . ?
C2 H23 0.9600 . ?
C2 H22 0.9600 . ?
C3 H31 0.9700 . ?
C3 H32 0.9700 . ?
C3 C4 1.497(4) . ?
C4 H42 0.9600 . ?
C4 H41 0.9600 . ?
C4 H43 0.9600 . ?
loop_
_geom_torsion_atom_site_label_1
_geom_torsion_atom_site_label_2
_geom_torsion_atom_site_label_3
_geom_torsion_atom_site_label_4
_geom_torsion
_geom_torsion_site_symmetry_1
_geom_torsion_site_symmetry_2
_geom_torsion_site_symmetry_3
_geom_torsion_site_symmetry_4
_geom_torsion_publ_flag
C1 O1 C3 C4 172.74(12) . . . . ?
C3 O1 C1 C2 179.15(10) . . . . ?
