#------------------------------------------------------------------------------
#$Date: 2024-02-05 14:09:55 +0200 (Mon, 05 Feb 2024) $
#$Revision: 289697 $
#$URL: file:///home/coder/svn-repositories/cod/cif/1/57/04/1570441.cif $
#------------------------------------------------------------------------------
#
# This file is available in the Crystallography Open Database (COD),
# http://www.crystallography.net/
#
# All data on this site have been placed in the public domain by the
# contributors.
#
data_1570441
loop_
_publ_author_name
'Sacharczuk, Natalia'
'Olejniczak, Anna'
'Bujak, Maciej'
'Dziubek, Kamil Filip'
'Katrusiak, Andrzej'
'Podsiad&#x142;o, Marcin'
_publ_section_title
;
 Conformation-aggregation interplay in the simplest aliphatic ethers
 probed under high pressure.
;
_journal_issue                   'Pt 1'
_journal_name_full               IUCrJ
_journal_page_first              57
_journal_page_last               61
_journal_paper_doi               10.1107/S2052252523009995
_journal_volume                  11
_journal_year                    2024
_chemical_formula_moiety         'C4 H10 O'
_chemical_formula_sum            'C4 H10 O'
_chemical_formula_weight         74.12
_chemical_name_systematic        'diethyl ether'
_space_group_crystal_system      monoclinic
_space_group_IT_number           14
_space_group_name_Hall           '-P 2ybc'
_space_group_name_H-M_alt        'P 1 21/c 1'
_atom_sites_solution_hydrogens   geom
_atom_sites_solution_primary     dual
_audit_creation_method
;
Olex2 1.5
(compiled 2022.04.07 svn.rca3783a0 for OlexSys, GUI svn.r6498)
;
_cell_angle_alpha                90
_cell_angle_beta                 93.713(3)
_cell_angle_gamma                90
_cell_formula_units_Z            4
_cell_length_a                   6.7759(3)
_cell_length_b                   8.0552(14)
_cell_length_c                   7.6873(2)
_cell_measurement_reflns_used    1419
_cell_measurement_temperature    295(2)
_cell_measurement_theta_max      26.2530
_cell_measurement_theta_min      4.6240
_cell_volume                     418.70(8)
_computing_cell_refinement       'CrysAlisPro 1.171.42.49 (Rigaku OD, 2022)'
_computing_data_collection       'CrysAlisPro 1.171.42.49 (Rigaku OD, 2022)'
_computing_data_reduction        'CrysAlisPro 1.171.42.49 (Rigaku OD, 2022)'
_computing_molecular_graphics    'Olex2 1.5 (Dolomanov et al., 2009)'
_computing_publication_material  'Olex2 1.5 (Dolomanov et al., 2009)'
_computing_structure_refinement  'SHELXL 2018/3 (Sheldrick, 2015)'
_computing_structure_solution    'SHELXT 2018/2 (Sheldrick, 2018)'
_diffrn_ambient_environment      'diamond-anvil cell'
_diffrn_ambient_pressure         2450000
_diffrn_ambient_temperature      295(2)
_diffrn_measured_fraction_theta_full 0.473
_diffrn_measured_fraction_theta_max 0.437
_diffrn_measurement_device_type  'KUMA KM4-CCD, Eos'
_diffrn_measurement_method       '\f- and \w-scans'
_diffrn_radiation_type           MoK\a
_diffrn_radiation_wavelength     0.71073
_diffrn_reflns_av_R_equivalents  0.0245
_diffrn_reflns_av_unetI/netI     0.0167
_diffrn_reflns_Laue_measured_fraction_full 0.473
_diffrn_reflns_Laue_measured_fraction_max 0.437
_diffrn_reflns_limit_h_max       8
_diffrn_reflns_limit_h_min       -8
_diffrn_reflns_limit_k_max       5
_diffrn_reflns_limit_k_min       -5
_diffrn_reflns_limit_l_max       9
_diffrn_reflns_limit_l_min       -9
_diffrn_reflns_number            2154
_diffrn_reflns_point_group_measured_fraction_full 0.473
_diffrn_reflns_point_group_measured_fraction_max 0.437
_diffrn_reflns_theta_full        25.242
_diffrn_reflns_theta_max         26.446
_diffrn_reflns_theta_min         4.857
_exptl_absorpt_coefficient_mu    0.081
_exptl_absorpt_correction_T_max  1.00000
_exptl_absorpt_correction_T_min  0.20659
_exptl_absorpt_correction_type   multi-scan
_exptl_absorpt_process_details
;
CrysAlisPro 1.171.42.49 (Rigaku Oxford Diffraction, 2022)
Empirical absorption correction using spherical harmonics,
implemented in SCALE3 ABSPACK scaling algorithm.
;
_exptl_crystal_colour            colourless
_exptl_crystal_density_diffrn    1.176
_exptl_crystal_description       disc
_exptl_crystal_F_000             168
_exptl_crystal_size_max          0.39
_exptl_crystal_size_mid          0.36
_exptl_crystal_size_min          0.25
_refine_diff_density_max         0.120
_refine_diff_density_min         -0.115
_refine_diff_density_rms         0.031
_refine_ls_extinction_method     none
_refine_ls_goodness_of_fit_ref   1.138
_refine_ls_hydrogen_treatment    constr
_refine_ls_matrix_type           full
_refine_ls_number_parameters     48
_refine_ls_number_reflns         377
_refine_ls_number_restraints     0
_refine_ls_restrained_S_all      1.138
_refine_ls_R_factor_all          0.0421
_refine_ls_R_factor_gt           0.0390
_refine_ls_shift/su_max          0.000
_refine_ls_shift/su_mean         0.000
_refine_ls_structure_factor_coef Fsqd
_refine_ls_weighting_details
'w=1/[\s^2^(Fo^2^)+(0.0773P)^2^+0.0273P] where P=(Fo^2^+2Fc^2^)/3'
_refine_ls_weighting_scheme      calc
_refine_ls_wR_factor_gt          0.1069
_refine_ls_wR_factor_ref         0.1110
_reflns_Friedel_coverage         0.000
_reflns_number_gt                346
_reflns_number_total             377
_reflns_threshold_expression     'I > 2\s(I)'
_cod_data_source_file            lq5055.cif
_cod_data_source_block           diethyl_ether_phase_beta_2_45GPa
_cod_depositor_comments
'Adding full bibliography for 1570433--1570452.cif.'
_cod_database_code               1570441
_shelx_shelxl_version_number     2018/3
_shelx_space_group_comment
;
The symmetry employed for this shelxl refinement is uniquely defined
by the following loop, which should always be used as a source of
symmetry information in preference to the above space-group names.
They are only intended as comments.
;
_exptl_absorpt_special_details
;
Data were collected at room temperature (295(2) K) and pressure of 
2.45(2) GPa (2450000 kPa).
;
_olex2_refinement_description
;
1. Fixed Uiso
 At 1.2 times of:
  All C(H,H) groups
 At 1.5 times of:
  All C(H,H,H) groups
2.a Secondary CH2 refined with riding coordinates:
 C1(H11,H12), C3(H31,H32)
2.b Idealised Me refined as rotating group:
 C2(H21,H23,H22), C4(H42,H41,H43)
;
_shelx_res_file
;
TITL 6ede_a.res in P2(1)/c
    6ede.res
    created by SHELXL-2018/3 at 12:18:29 on 22-Dec-2022
REM Old TITL 6ede in P2(1)/c
REM SHELXT solution in P2(1)/c: R1 0.167, Rweak 0.418, Alpha 0.124
REM <I/s> 0.370 for 30 systematic absences, Orientation as input
REM Formula found by SHELXT: C4 O
CELL 0.71073 6.7759 8.0552 7.6873 90 93.713 90
ZERR 4 0.0003 0.0014 0.0002 0 0.003 0
LATT 1
SYMM -X,0.5+Y,0.5-Z
SFAC C H O
UNIT 16 40 4

L.S. 50
PLAN  10
CONF
BOND
list 4
fmap 2 53
MORE -1
BOND $H
ACTA
REM <olex2.extras>
REM <HklSrc "%.\\6ede.hkl">
REM </olex2.extras>

WGHT    0.077300    0.027300
FVAR       2.77385
O1    3    0.176814    0.315855    0.166615    11.00000    0.02727    0.03155 =
         0.03624   -0.00412    0.01229   -0.00218
C1    1    0.074126    0.456213    0.230439    11.00000    0.02905    0.01460 =
         0.02879   -0.00229    0.00207    0.00055
AFIX  23
H11   2    0.032470    0.529428    0.134822    11.00000   -1.20000
H12   2    0.160060    0.517948    0.312958    11.00000   -1.20000
AFIX   0
C2    1   -0.102963    0.392674    0.317959    11.00000    0.02969    0.03397 =
         0.03490   -0.00447    0.00885    0.00365
AFIX 137
H21   2   -0.184224    0.328073    0.236481    11.00000   -1.50000
H23   2   -0.177930    0.484773    0.357653    11.00000   -1.50000
H22   2   -0.059845    0.324591    0.415643    11.00000   -1.50000
AFIX   0
C3    1    0.345228    0.367796    0.080479    11.00000    0.02745    0.04215 =
         0.03134    0.00305    0.00956   -0.00142
AFIX  23
H31   2    0.425157    0.441993    0.155287    11.00000   -1.20000
H32   2    0.303905    0.427143   -0.025482    11.00000   -1.20000
AFIX   0
C4    1    0.463852    0.218284    0.037263    11.00000    0.02873    0.03329 =
         0.03243   -0.00568    0.00619   -0.00323
AFIX 137
H42   2    0.385406    0.147174   -0.039892    11.00000   -1.50000
H41   2    0.502376    0.159088    0.142415    11.00000   -1.50000
H43   2    0.579839    0.252722   -0.018446    11.00000   -1.50000
AFIX   0
HKLF 4




REM  6ede_a.res in P2(1)/c
REM wR2 = 0.1110, GooF = S = 1.138, Restrained GooF = 1.138 for all data
REM R1 = 0.0390 for 346 Fo > 4sig(Fo) and 0.0421 for all 377 data
REM 48 parameters refined using 0 restraints

END

WGHT      0.0773      0.0273

REM Highest difference peak  0.120,  deepest hole -0.115,  1-sigma level  0.031
Q1    1  -0.2129  0.6046  0.3678  11.00000  0.05    0.12
Q2    1   0.2831  0.4832  0.1224  11.00000  0.05    0.12
Q3    1  -0.0535  0.5083  0.2621  11.00000  0.05    0.11
Q4    1   0.1575  0.2682  0.1720  11.00000  0.05    0.10
Q5    1   0.4527  0.4050  0.2231  11.00000  0.05    0.10
Q6    1  -0.2124  0.3514  0.1478  11.00000  0.05    0.09
Q7    1  -0.1159  0.4210  0.4529  11.00000  0.05    0.09
Q8    1   0.4672  0.1245 -0.0179  11.00000  0.05    0.09
Q9    1   0.4960  0.4824  0.2760  11.00000  0.05    0.08
Q10   1   0.0089  0.3469  0.2592  11.00000  0.05    0.08
;
_shelx_res_checksum              60343
_shelx_hkl_file
;
   0   0   2 1792.20   21.79
   0   0  -2 1793.90   21.66
   0   0  -2 1768.81   21.53
   0   0   2 1793.49   21.22
   0   0  -2 1857.49   22.01
   0   0   2 1787.67   21.95
   0   0   3   -0.63    1.01
   0   0  -3    0.26    0.96
   0   0  -3    0.29    0.91
   0   0   3    0.30    0.94
   0   0   3    1.33    0.86
   0   0  -3    0.46    0.80
   0   0   3    0.83    1.00
   0   0  -3   -0.58    0.71
   0   0  -3    0.31    0.92
   0   0  -4    1.29    1.40
   0   0   4   -0.94    1.18
   0   0  -4    1.36    1.16
   0   0  -4   -0.42    1.41
   0   0   4    1.10    1.50
   0   0  -4   -0.56    1.45
   0   0   4    0.47    1.19
   0   0   4   -0.03    1.46
   0   0  -4   -0.27    1.08
   0   0  -5    0.28    1.75
   0   0  -5    1.69    1.95
   0   0  -5   -1.05    1.75
   0   0   5   -1.47    1.56
   0   0  -5   -0.83    1.55
   0   0   5    0.60    1.82
   0   0  -5    0.41    1.75
   0   0   5    4.26    2.47
   0   0  -6  174.45   10.84
   0   0  -6  169.21   11.23
   0   0  -6  178.00   11.01
   0   0   6  170.08   10.31
   0   0   6  177.98   10.73
   0   0   6  175.95   11.02
   0   0  -7   -1.16    3.12
   0   0   7    0.55    2.95
   0   0   7    3.03    3.29
   0   0  -7   -1.17    3.01
   0   0  -7    1.71    3.18
   0   0   7    2.38    3.15
   0   0  -8  211.52   16.42
   0   0   8  254.56   16.85
   0   0   8  253.54   16.74
   0   1   2 7134.68   57.78
   0  -1  -2 6955.44   58.80
   0   1   2 7055.06   56.08
   0  -1  -2 6995.07   58.85
   0   1   2 7083.46   58.46
   0   1   2 6900.00   58.56
   0  -1  -2 6967.71   56.76
   0  -1  -2 7039.52   57.83
   0  -1  -3   66.86    3.54
   0  -1  -3   63.64    4.44
   0  -1  -3   65.64    4.66
   0  -1  -3   67.85    4.66
   0   1   3   65.36    3.54
   0   1   3   59.22    4.17
   0  -1  -3   63.18    4.04
   0   1   3   58.58    3.88
   0   1   3   64.11    4.41
   0   1   3   60.55    4.29
   0   1   4   47.94    4.55
   0  -1  -4   43.28    4.22
   0   1   4   44.00    4.42
   0   1   4   48.55    3.66
   0   1   4   39.78    4.03
   0  -1  -4   48.02    3.57
   0  -1  -4   42.96    4.46
   0  -1  -4   47.88    4.19
   0   1   4   40.98    3.58
   0  -1  -4   40.46    4.27
   0  -1  -5   66.32    6.12
   0   1   5   64.38    6.10
   0  -1  -5   65.07    6.05
   0   1   5   63.22    5.76
   0  -1  -5   60.48    6.07
   0   1   5   63.33    5.87
   0   1   5   68.36    5.29
   0  -1  -5   68.57    5.53
   0  -1  -6  135.52    9.61
   0  -1  -6  131.62    9.46
   0   1   6  133.41    9.62
   0   1   6  127.04    9.14
   0   1   6  139.66    9.70
   0  -1  -6  137.17    9.72
   0  -1  -7   87.28    8.74
   0  -1  -7   81.66    8.62
   0   1   7   88.11    8.46
   0   1   7   93.99    9.02
   0   1   7   88.63    8.60
   0  -1  -7   90.99    8.91
   0  -1  -8   69.41    9.09
   0  -1  -8   70.10    8.70
   0   1   8   68.95    8.54
   0   1   8   68.88    8.71
   0  -1  -8   63.84    8.36
   0   1   8   82.27    9.42
   0  -1  -9   63.99    9.60
   0  -1  -9   48.93    9.29
   0   1   9   46.33    8.36
   0   1   9   49.71    8.71
   0   1   9   62.93    9.73
   0  -1  -9   47.69    8.52
   0  -2  -3    4.64    1.30
   0  -2  -3    3.29    1.60
   0   2   3    2.66    1.72
   0   2   3    2.24    1.44
   0   2   3    5.54    1.51
   0  -2  -3    2.74    1.16
   0  -2  -3    2.08    1.27
   0  -2  -3   -0.65    1.56
   0   2   3    2.30    1.03
   0   2   3    4.80    1.66
   0  -2  -4  100.77    6.66
   0   2   4  102.14    6.01
   0   2   4  107.71    6.88
   0  -2  -4  105.69    7.05
   0  -2  -4  110.31    7.09
   0  -2  -4  109.32    6.71
   0  -2  -4  117.15    5.56
   0   2   4  118.89    7.22
   0   2   4  103.18    6.82
   0   2   5  125.21    8.36
   0  -2  -5  132.37    7.80
   0  -2  -5  133.25    8.71
   0   2   5  130.27    8.51
   0   2   5  114.25    7.43
   0   2   5  121.46    8.15
   0  -2  -5  130.00    8.45
   0  -2  -5  113.00    8.19
   0  -2  -6  352.25   16.01
   0   2   6  328.48   14.72
   0   2   6  316.04   14.78
   0   2   6  326.45   13.12
   0  -2  -6  365.56   15.96
   0  -2  -6  342.14   15.33
   0   2   6  352.08   15.59
   0   2   7   37.92    6.59
   0   2   7   37.05    5.63
   0  -2  -7   51.19    7.07
   0   2   7   41.04    6.35
   0  -2  -7   34.76    5.75
   0  -2  -7   38.72    6.14
   0   2   8   90.73    9.87
   0  -2  -8   77.19    9.21
   0   2   8   96.00    9.96
   0   2   8   75.61    9.08
   0  -2  -8   83.83    9.28
   0  -2  -8   80.20    9.28
   0  -2  -9  118.70   12.12
   0   2   9  123.42   12.44
   0   2   9  134.63   12.64
   0  -2  -9  103.43   11.48
   0   2   9  131.81   12.36
   0  -2  -9  115.30   12.02
   0  -3  -4  211.06   11.90
   0   3   4  208.93   12.54
   0   3   4  196.45   11.93
   0  -3  -4  193.31   10.80
   0  -3  -4  240.69   12.92
   0  -3  -5  111.65    8.65
   0   3   5  112.09    8.02
   0   3   5   99.75    8.58
   0  -3  -5  112.76    8.55
   0   3   5  113.19    8.76
   0  -3  -5  119.01    9.21
   0   3   5  104.24    8.91
   0   3   6  123.67    9.88
   0   3   6  112.75    8.63
   0   3   6  107.33    9.17
   0  -3  -6  114.57    9.84
   0  -3  -6  102.90    9.33
   0   3   6  110.53    9.63
   0  -3  -6  107.00    9.15
   0  -3  -7   29.03    5.48
   0   3   7   25.51    5.72
   0   3   7   32.84    6.10
   0  -3  -7   16.83    4.52
   0  -3  -7   40.71    6.90
   0   3   7   20.06    5.23
   0   3   8  381.37   20.37
   0  -3  -8  473.71   23.01
   0   3   8  440.46   21.54
   0   3   8  431.70   22.24
   0  -3  -8  467.49   22.87
   0  -3  -8  462.61   22.43
   0   3   9   82.96   11.41
   0  -3  -9   74.53   10.19
  -1   0   7    9.75    5.23
  -1   0   7    5.27    3.56
   1   0  -7    8.25    5.01
   1   0  -6  576.37   19.27
   1   0  -6  535.22   20.51
  -1   0   6  595.28   20.28
   1   0  -6  570.44   21.22
  -1   0   6  600.68   20.98
  -1   0   6  619.11   22.29
   1   0  -5   -2.41    2.39
  -1   0   5    1.53    2.41
  -1   0   5    1.86    2.43
   1   0  -5   -0.97    2.07
   1   0  -5    0.62    1.78
   1   0  -5    1.36    2.35
  -1   0   5    2.25    2.73
  -1   0   4 1214.28   24.91
   1   0  -4 1287.33   23.55
  -1   0   4 1289.45   23.74
   1   0  -4 1218.35   24.65
  -1   0   4 1290.48   24.51
   1   0  -4 1260.05   26.02
   1   0  -4 1301.09   25.12
  -1   0   4 1268.89   23.57
  -1   0   3    0.37    1.01
   1   0  -3    0.75    1.07
   1   0  -3    1.15    1.08
  -1   0   3    0.78    1.12
   1   0  -3   -0.32    1.02
  -1   0   3   -0.13    0.93
   1   0  -3   -1.31    1.10
   1   0  -2  655.15   12.81
  -1   0   2  641.76   12.81
   1   0  -2  644.89   12.81
  -1   0   2  648.36   12.48
  -1   0   2  594.86   12.17
  -1   0  -3   -0.65    0.95
  -1   0  -3    0.13    0.98
  -1   0  -3   -0.81    0.83
   1   0   3    0.37    1.05
   1   0   3   -0.15    0.79
  -1   0  -3    0.35    0.71
  -1   0  -3   -1.19    1.06
   1   0   3   -0.20    0.71
   1   0   3    0.63    1.09
  -1   0  -3    0.01    0.86
  -1   0  -4  583.28   14.01
   1   0   4  596.69   12.25
  -1   0  -4  607.34   16.57
  -1   0  -4  583.79   15.58
   1   0   4  588.77   16.21
  -1   0  -4  576.26   15.31
  -1   0  -4  629.50   15.99
   1   0   4  575.08   15.43
   1   0   4  559.50   14.82
  -1   0  -5    2.52    2.40
  -1   0  -5    0.33    1.62
  -1   0  -5   -2.68    2.04
   1   0   5    2.46    2.39
  -1   0  -5   -0.75    2.02
   1   0   5    1.44    2.24
   1   0   5   -1.33    1.68
  -1   0  -6   -2.13    2.57
  -1   0  -6   -0.39    2.05
   1   0   6    1.50    2.51
   1   0   6   -0.41    2.46
   1   0   6    4.07    3.09
   1   0   6   -0.21    1.91
  -1   0  -6   -2.56    2.50
  -1   0  -6    4.68    2.66
  -1   0  -7    2.18    3.44
  -1   0  -7   -0.78    3.31
  -1   0  -7    0.10    3.46
   1   0   7   -5.01    3.79
   1   0   7   -3.87    3.66
   1   0   7   -2.34    3.01
  -1   0  -8    1.47    4.14
  -1   0  -8   -8.35    4.98
   1   0   8   -5.77    4.14
  -1   0  -8    2.99    3.65
   1   0   8    2.68    4.17
   1   0   8   -0.70    3.54
  -1   1   9   43.28    8.53
  -1   1   9   30.64    6.30
   1  -1  -9   31.68    7.47
  -1   1   9   43.31    8.15
   1  -1  -9   36.42    7.31
  -1   1   8    6.43    4.53
   1  -1  -8   -1.60    3.75
   1  -1  -8  -11.71    4.61
  -1   1   8    5.93    3.73
  -1   1   8   -0.27    4.73
   1  -1  -8   -2.47    4.85
   1  -1  -7   51.67    6.69
   1  -1  -7   58.69    7.71
  -1   1   7   45.07    6.51
   1  -1  -7   45.66    6.60
  -1   1   7   45.96    5.83
  -1   1   7   48.53    6.40
  -1   1   7   49.66    6.25
   1  -1  -7   44.85    6.70
  -1   1   6  341.58   13.98
   1  -1  -6  342.03   15.26
   1  -1  -6  336.85   15.09
  -1   1   6  338.84   14.78
  -1   1   6  332.85   15.00
   1  -1  -6  337.12   13.86
   1  -1  -6  359.24   15.90
  -1   1   6  360.23   14.72
  -1   1   5  156.53    8.55
  -1   1   5  164.52    9.38
  -1   1   5  155.66    8.65
   1  -1  -5  154.45    9.20
  -1   1   5  163.71    9.29
   1  -1  -5  156.08    8.84
   1  -1  -5  157.02    9.32
   1  -1  -5  151.35    8.44
  -1   1   4  211.69    9.60
   1  -1  -4  218.08    9.87
  -1   1   4  206.03    8.51
   1  -1  -4  207.44    8.91
  -1   1   4  229.29    7.81
  -1   1   4  224.33    9.64
   1  -1  -4  222.53    7.17
   1  -1  -4  215.08    8.95
  -1   1   4  215.20    8.92
   1  -1  -4  222.19    9.77
  -1   1   3  195.06    7.93
  -1   1   3  179.57    7.59
  -1   1   3  195.99    6.99
   1  -1  -3  185.01    7.74
  -1   1   3  189.81    7.54
   1  -1  -3  187.50    7.64
   1  -1  -3  172.17    7.71
  -1   1   3  188.13    6.30
   1  -1  -3  185.35    7.00
  -1   1   2 1816.40   22.76
   1  -1  -2 1725.63   22.66
  -1   1   2 1817.94   23.00
  -1   1   2 1778.67   20.84
   1  -1  -2 1797.95   22.92
  -1   1   2 1716.78   22.75
   1  -1  -2 1809.21   22.80
   1  -1  -2 1788.05   20.94
  -1   1  -1 2196.33   24.79
   1  -1   1 2256.93   24.66
  -1  -1  -2  634.06   12.84
  -1  -1  -2  686.41   13.52
   1   1   2  638.91   13.43
  -1   1  -2  612.85   13.35
  -1   1  -2  618.68   11.79
  -1   1  -2  618.34   14.35
   1   1   2  634.81   13.49
   1   1   2  623.38   12.51
  -1  -1  -2  635.24   13.23
  -1   1  -2  630.73   12.15
  -1  -1  -2  618.61   12.42
  -1   1  -2  626.20   13.37
   1   1   2  620.09   12.68
   1   1   3    1.82    0.89
   1  -1   3    0.02    1.17
  -1  -1  -3    1.65    0.94
   1  -1   3   -0.27    1.07
   1   1   3    1.93    1.12
  -1   1  -3    0.68    1.04
  -1   1  -3    3.01    1.21
  -1  -1  -3    1.67    1.23
   1   1   3    0.59    1.29
  -1  -1  -3    1.85    1.28
  -1   1  -3    0.30    1.34
   1   1   3    0.43    1.37
   1   1   3    1.97    1.36
  -1   1  -3    0.73    0.98
  -1  -1  -3    0.20    1.15
   1   1   4 2116.95   30.55
  -1   1  -4 2185.68   32.63
  -1  -1  -4 2209.37   32.98
  -1  -1  -4 2121.53   27.92
   1   1   4 2146.35   27.10
   1  -1   4 2170.43   32.55
  -1  -1  -4 1991.80   33.12
   1  -1   4 2069.75   33.66
   1   1   4 2034.99   31.99
   1   1   4 2194.20   32.27
  -1  -1  -4 2133.24   32.87
  -1  -1  -4 2224.19   31.36
  -1   1  -4 2203.20   28.38
  -1   1  -4 2122.65   34.61
   1   1   4 2191.40   32.64
  -1   1  -4 2130.74   34.18
   1   1   5    3.65    2.19
  -1  -1  -5    6.38    2.62
   1   1   5    1.59    2.03
   1  -1   5    1.30    1.74
  -1  -1  -5    3.02    2.17
   1   1   5    2.31    2.14
  -1  -1  -5    5.71    2.81
  -1   1  -5    4.71    1.99
  -1   1  -5    4.04    2.33
  -1   1  -5    2.72    2.66
   1  -1   5   -2.80    3.12
   1   1   5    5.54    2.44
  -1  -1  -5    6.37    2.78
  -1  -1  -6   72.58    7.12
  -1   1  -6   68.48    7.99
   1  -1   6   72.07    7.44
  -1  -1  -6   66.17    6.16
  -1  -1  -6   76.65    7.69
   1   1   6   75.98    7.23
   1   1   6   70.34    7.08
   1   1   6   65.15    6.75
  -1   1  -6   72.89    7.69
   1  -1   6   70.37    7.03
   1   1   6   70.09    5.99
  -1  -1  -6   71.99    7.23
  -1  -1  -7   21.91    5.29
   1   1   7   25.37    5.24
   1   1   7   28.55    5.01
   1   1   7   29.95    5.12
  -1  -1  -7   25.88    5.74
  -1  -1  -7   27.12    5.33
   1   1   8   83.98    8.85
   1   1   8   85.86    9.16
   1   1   8   77.80    8.74
  -1  -1  -8   83.36    9.81
  -1  -1  -8   80.99    9.18
  -1  -1  -8   74.29    9.16
   1   1   9   46.11    7.33
  -1  -1  -9   51.02    8.76
  -1  -1  -9   47.99    7.73
   1   1   9   42.69    7.87
  -1  -1  -9   46.47    7.65
   1   1   9   62.74    9.40
  -1   2   9  130.39   12.69
  -1   2   9  135.48   12.81
   1  -2  -9  156.14   14.43
  -1   2   8   65.86    8.86
  -1   2   8   58.62    7.15
  -1   2   8   63.50    8.69
   1  -2  -8   69.67    9.10
   1  -2  -8   54.86    8.01
   1  -2  -8   57.41    8.11
   1  -2  -7  396.46   18.22
   1  -2  -7  431.01   19.44
  -1   2   7  406.83   18.21
   1  -2  -7  416.87   17.25
  -1   2   7  420.09   17.37
   1  -2  -7  393.29   17.60
  -1   2   7  404.38   18.23
  -1   2   7  412.91   17.30
   1  -2  -6  108.13    8.43
  -1   2   6  104.94    8.15
   1  -2  -6   93.04    8.41
  -1   2   6   90.25    8.05
   1  -2  -6  109.32    9.19
   1  -2  -6   94.63    7.74
  -1   2   6   97.66    8.63
  -1   2   6   97.98    7.81
   1  -2  -5  223.23   11.76
   1  -2  -5  214.60   11.20
  -1   2   5  212.85   10.00
  -1   2   5  226.43   10.75
  -1   2   5  207.53   11.01
  -1   2   5  220.10   11.19
   1  -2  -5  208.16   10.31
   1  -2  -5  214.58   10.58
   1  -2  -4 1549.65   27.15
   1  -2  -4 1517.75   26.17
   1  -2  -4 1448.12   27.81
  -1   2   4 1432.51   26.45
   1  -2  -4 1396.62   26.82
   1  -2  -4 1527.77   23.68
  -1   2   4 1373.58   26.59
  -1   2   4 1442.14   25.30
  -1   2   4 1485.84   27.19
  -1   2   4 1536.12   22.72
  -1   2   3  602.87   14.75
   1  -2  -3  616.45   13.76
   1  -2  -3  635.49   13.68
  -1   2   3  627.39   13.15
   1  -2  -3  608.25   15.23
  -1   2   3  632.01   14.04
  -1   2   3  614.87   14.97
  -1   2   3  587.82   14.87
   1  -2  -3  595.48   15.06
   1  -2  -3  640.33   15.51
  -1   2   2  325.46    9.48
   1  -2  -2  298.51    9.37
  -1   2   2  275.10    9.20
   1  -2  -2  298.06    9.65
   1  -2  -2  282.73    8.98
  -1   2   2  294.47    9.35
  -1   2   2  292.37    9.03
   1  -2  -2  291.45    7.80
   1  -2  -2  271.56    8.87
   1  -2  -1    1.34    1.01
  -1  -2  -3 4593.83   57.16
   1   2   3 4661.02   57.63
  -1  -2  -3 4730.15   56.90
   1   2   4  583.53   16.56
   1   2   4  607.53   14.58
  -1  -2  -4  620.29   18.17
  -1  -2  -4  581.41   17.21
   1   2   4  600.85   17.73
  -1  -2  -4  634.33   15.91
  -1  -2  -4  614.10   17.49
   1   2   4  608.73   17.96
   1   2   5   -0.89    2.25
  -1  -2  -5    1.72    2.56
  -1  -2  -5   -1.13    1.91
  -1  -2  -5   -0.07    2.22
  -1  -2  -5   -2.66    2.81
   1   2   5    7.64    3.43
   1   2   5    3.17    2.54
  -1  -2  -6   72.36    7.49
  -1  -2  -6   67.48    7.26
   1   2   6   68.13    7.19
  -1  -2  -6   60.15    6.85
   1   2   6   56.50    6.83
   1   2   6   58.51    6.72
   1   2   7   42.56    6.27
  -1  -2  -7   56.64    7.26
   1   2   7   53.74    6.97
  -1  -2  -7   59.68    7.69
   1   2   7   58.34    7.83
  -1  -2  -7   43.46    6.26
  -1  -2  -8  128.11   11.75
   1   2   8  121.30   11.18
  -1  -2  -8  131.52   11.70
   1   2   8  122.38   10.76
   1   2   8  110.97   10.98
  -1  -2  -8  115.02   10.94
   1   2   9   -0.69    4.94
   1   2   9   -3.00    4.06
  -1  -2  -9   10.09    4.28
  -1  -2  -9   12.44    5.42
  -1   3   8   18.69    6.40
  -1   3   8   26.49    6.04
   1  -3  -8   22.25    5.83
   1  -3  -8   27.66    5.92
   1  -3  -7  374.76   18.83
   1  -3  -7  367.97   17.53
  -1   3   7  348.06   16.82
  -1   3   7  332.86   17.16
   1  -3  -7  374.34   17.45
  -1   3   7  354.25   17.77
  -1   3   7  375.27   16.84
   1  -3  -7  376.81   18.53
  -1   3   6 1015.51   27.87
   1  -3  -6 1044.51   29.03
  -1   3   6 1004.38   26.38
  -1   3   6 1002.78   27.87
   1  -3  -6 1105.66   28.57
  -1   3   6 1038.71   27.18
   1  -3  -6 1034.82   27.14
   1  -3  -6 1093.21   29.06
   1  -3  -5  109.98    8.61
   1  -3  -5  111.90    8.33
  -1   3   5   97.49    7.88
  -1   3   5  116.58    8.58
  -1   3   5  109.45    8.00
   1  -3  -5   93.64    7.73
  -1   3   5  110.25    8.33
   1  -3  -5  111.07    7.68
  -1   3   4  174.53    9.47
   1  -3  -4  170.35    8.50
   1  -3  -4  194.29   10.19
  -1   3   4  179.80    8.49
  -1   3   4  184.97   10.12
   1  -3  -4  172.09    9.69
   1  -3  -4  177.59    9.94
  -1   3   4  179.43    9.89
  -1   3   3  865.53   25.54
   1  -3  -3  863.68   23.06
   1  -3  -3  922.53   21.74
  -1   3   3  909.57   23.43
   1  -3  -3  924.26   22.14
  -1   3   3  905.66   24.51
  -1  -3  -5  278.80   15.23
   1   3   5  303.19   16.37
  -1  -3  -5  301.77   16.06
  -1  -3  -6   65.82    7.69
  -1  -3  -6   62.97    7.89
  -1  -3  -6   70.75    9.15
   1   3   6   65.88    8.09
   1   3   6   63.24    8.20
  -1  -3  -7   43.73    7.85
   1   3   7   26.85    6.21
   1   3   7   31.09    5.88
  -1  -3  -7   29.75    5.86
  -1  -3  -7   24.43    5.65
  -1  -3  -8   31.50    7.08
   1   3   8   39.30    7.19
  -1  -3  -8   50.75    8.87
  -1  -3  -8   36.85    7.09
   1   3   8   41.39    8.28
   1  -4  -8   61.45    9.87
  -1   4   8   50.94    9.33
   1  -4  -8   65.41   10.66
  -1   4   7   32.71    6.98
   1  -4  -7   29.39    6.84
   1  -4  -7   34.32    7.65
  -1   4   7   29.79    7.04
   1  -4  -6  328.43   18.75
   1  -4  -6  326.24   18.73
  -1   4   6  270.16   18.04
  -1   4   6  299.03   18.07
  -1   4   5   71.04    9.84
   1  -4  -5   59.57    8.00
  -1   4   5   60.07    9.58
   1  -4  -5   72.46    7.86
   2   0  -4 2097.72   34.40
   2   0  -4 1953.69   32.18
  -2   0   4 2064.26   34.13
  -2   0   3    1.02    1.50
  -2   0   3   -1.25    1.31
   2   0  -3    0.33    1.11
  -2   0   2 3580.18   39.89
  -2   0   1   -1.32    0.93
   2   0   0 1021.89   16.70
  -2   0   0 1101.31   16.81
  -2   0   0 1040.59   16.71
  -2   0   0 1012.03   16.62
   2   0   1    0.04    0.88
  -2   0  -1    0.17    0.48
  -2   0  -1    1.00    0.74
  -2   0  -1    0.23    0.78
  -2   0  -1   -1.06    1.10
   2   0   1   -0.08    0.92
   2   0   1   -0.12    0.56
   2   0   2  579.85   12.78
   2   0   2  593.35   12.97
  -2   0  -2  595.52   12.78
  -2   0  -2  593.23   12.96
  -2   0  -2  587.60   13.82
   2   0   2  525.27   10.17
  -2   0  -2  574.53   11.20
  -2   0  -2  586.73   12.81
   2   0   2  581.26   13.77
   2   0   3   -2.45    2.13
  -2   0  -3   -2.59    1.46
  -2   0  -3   -0.09    1.45
  -2   0  -3   -0.67    1.48
  -2   0  -3   -3.07    2.05
  -2   0  -3   -3.36    2.00
   2   0   3   -4.16    2.03
   2   0   3   -2.01    1.37
  -2   0  -3   -0.36    1.42
   2   0   3   -2.00    1.31
   2   0   3   -3.38    2.05
  -2   0  -4 9801.34   84.73
   2   0   4 9810.58   82.41
  -2   0  -4 9741.62   86.49
   2   0   4 9883.83   85.62
  -2   0  -4 9999.00   86.61
   2   0   4 9828.20   91.65
  -2   0  -4 9626.04   92.69
   2   0   4 9581.54   91.13
  -2   0  -4 9869.70   92.38
   2   0   4 9658.03   82.94
   2   0   4 9980.69   86.59
  -2   0  -4 9817.66   82.51
  -2   0  -5   -2.86    2.28
   2   0   5   -0.58    1.83
  -2   0  -5    2.45    2.21
  -2   0  -5   -1.50    2.33
   2   0   5   -2.26    2.38
   2   0   5   -1.90    2.72
   2   0   5   -1.31    1.93
  -2   0  -5   -0.21    1.92
   2   0   6  195.41   10.98
  -2   0  -6  194.81   11.05
  -2   0  -6  183.53   11.21
   2   0   6  166.09   11.24
  -2   0  -6  182.27   11.79
   2   0   6  192.23   11.28
   2   0   7    1.50    2.60
  -2   0  -7    0.76    3.63
   2   0   7   -2.77    3.19
  -2   0  -7   -2.94    3.92
   2   0   7    7.12    5.18
  -2   0  -7   -3.53    3.09
  -2   0  -8   -5.77    5.87
   2   0   8   10.48    5.55
   2  -1  -8   26.52    6.61
   2  -1  -8   16.87    5.89
  -2   1   8   27.92    6.10
   2  -1  -8   15.20    5.04
  -2   1   8   24.20    5.20
  -2   1   7   66.43    7.65
   2  -1  -7   75.86    8.56
   2  -1  -7   65.54    8.23
  -2   1   7   83.56    8.94
   2  -1  -7   77.15    9.04
  -2   1   7   70.85    8.21
   2  -1  -6   30.58    4.70
  -2   1   6   36.91    5.27
  -2   1   6   39.72    5.51
   2  -1  -6   31.69    5.27
  -2   1   6   32.59    4.89
   2  -1  -6   32.41    5.25
  -2   1   6   22.07    4.07
  -2   1   5   40.07    4.84
  -2   1   5   46.71    4.82
   2  -1  -5   43.16    5.08
  -2   1   5   43.59    5.12
  -2   1   5   47.42    5.63
   2  -1  -5   47.72    5.35
   2  -1  -5   37.32    4.87
   2  -1  -5   40.75    5.34
  -2   1   4 1237.86   24.39
  -2   1   4 1317.65   25.00
   2  -1  -4 1215.38   24.82
  -2   1   4 1282.25   23.17
   2  -1  -4 1187.10   24.40
   2  -1  -4 1328.63   24.66
  -2   1   4 1235.94   24.75
  -2   1   4 1236.22   21.13
   2  -1  -4 1211.76   24.87
  -2   1   3 1437.10   24.03
  -2   1   3 1401.86   23.58
   2  -1  -3 1502.31   25.34
   2  -1  -3 1486.10   24.37
  -2   1   3 1459.70   23.06
  -2   1   3 1489.59   19.94
   2  -1  -3 1427.27   23.96
   2  -1  -3 1389.90   21.88
  -2   1   3 1461.07   24.43
   2  -1  -2  248.92    7.93
  -2   1   2  257.76    7.26
   2  -1  -2  251.26    6.96
  -2   1   2  247.34    8.27
   2  -1  -2  253.92    8.07
  -2   1   2  225.48    7.66
  -2   1   2  258.11    6.80
  -2   1   2  242.87    8.39
  -2   1   2  253.57    7.95
   2  -1  -2  249.49    8.74
   2  -1  -1  398.65    9.78
  -2   1   1  396.50    9.45
  -2   1   1  407.93   10.22
  -2   1   1  438.39    9.98
  -2   1   1  428.06    9.61
  -2   1   0  856.79   15.10
  -2   1   0  867.76   14.64
  -2   1   0  874.04   15.02
  -2   1  -1  804.05   15.43
   2  -1   1  851.77   14.18
  -2   1  -1  829.27   15.46
  -2   1  -1  875.90   15.59
  -2   1  -1  830.10   13.73
  -2   1  -2 3541.23   38.60
   2   1   2 3531.67   41.39
  -2  -1  -2 3632.07   41.63
   2  -1   2 3501.07   34.35
   2  -1   2 3495.42   37.33
  -2   1  -2 3571.90   33.38
   2  -1   2 3580.20   39.56
  -2   1  -2 3575.46   40.68
   2   1   2 3479.95   43.41
  -2   1  -2 3553.70   37.97
  -2   1  -2 3483.16   39.25
  -2  -1  -2 3589.72   42.47
   2  -1   3  811.70   17.54
  -2   1  -3  780.06   17.29
  -2   1  -3  805.00   16.59
  -2   1  -3  810.37   14.71
   2   1   3  782.21   18.28
   2  -1   3  782.46   16.11
   2  -1   3  831.74   18.11
  -2  -1  -3  797.05   16.41
   2   1   3  804.77   18.65
  -2  -1  -3  755.62   17.53
  -2   1  -3  788.70   18.52
   2   1   3  721.98   15.67
  -2  -1  -3  776.20   17.82
  -2   1  -3  806.09   17.98
  -2  -1  -3  756.75   15.10
  -2   1  -3  826.74   16.98
   2  -1   3  804.08   15.20
  -2  -1  -3  697.34   18.45
   2  -1   4  406.90   13.19
  -2   1  -4  423.24   14.39
  -2  -1  -4  388.83   13.77
   2  -1   4  369.56   12.55
  -2   1  -4  399.73   12.24
   2   1   4  394.90   14.05
  -2  -1  -4  402.80   13.53
   2   1   4  394.52   13.78
  -2  -1  -4  407.28   13.11
   2  -1   4  411.40   14.32
  -2   1  -4  388.77   14.57
  -2  -1  -4  398.72   14.27
   2   1   4  398.03   13.47
   2   1   4  392.67   12.84
  -2   1  -4  407.24   14.41
  -2   1  -4  409.61   12.38
   2  -1   4  402.89   12.70
  -2   1  -4  366.54   12.49
  -2   1  -5    8.24    2.59
   2   1   5   15.31    3.75
   2   1   5    7.88    2.26
  -2  -1  -5   12.79    2.76
   2   1   5   12.89    2.93
  -2   1  -5   11.26    2.73
   2   1   5   14.49    3.66
  -2  -1  -5   10.75    2.92
  -2  -1  -5   16.26    3.95
  -2   1  -5   11.46    3.20
  -2  -1  -5   17.97    3.72
   2  -1   5    8.72    2.97
  -2  -1  -6  523.48   18.46
   2   1   6  484.88   19.29
   2   1   6  551.56   18.44
   2  -1   6  513.46   19.49
  -2  -1  -6  550.63   19.21
  -2   1  -6  550.60   20.59
  -2  -1  -6  519.84   18.56
   2   1   6  507.75   18.32
  -2  -1  -6  510.67   19.92
  -2   1  -6  515.88   20.73
   2   1   6  544.68   18.51
  -2  -1  -7    4.41    3.63
   2   1   7    8.46    3.34
   2  -1   7    9.96    5.24
  -2   1  -7    3.44    2.96
  -2  -1  -7    7.05    3.58
   2   1   7   17.07    4.91
  -2  -1  -7    4.75    3.61
   2  -1   7    4.88    3.16
  -2   1  -7    3.85    3.61
  -2  -1  -8   64.94    8.12
   2   1   8   65.45    8.22
  -2  -1  -8   76.31    9.36
   2   1   8   78.26    9.25
  -2   2   8   38.52    7.82
  -2   2   8   39.51    7.11
   2  -2  -8   38.49    6.70
  -2   2   8   34.18    6.65
   2  -2  -8   32.77    6.78
   2  -2  -8   34.35    6.38
  -2   2   7  233.70   13.84
   2  -2  -7  245.98   14.14
  -2   2   7  270.54   15.09
  -2   2   7  258.59   15.31
   2  -2  -7  225.68   14.04
   2  -2  -7  248.34   15.22
  -2   2   6  206.87   12.28
   2  -2  -6  187.75   11.44
  -2   2   6  198.37   11.94
   2  -2  -6  179.73   11.66
   2  -2  -6  181.31   11.87
  -2   2   6  201.95   11.73
  -2   2   5 1068.83   27.68
   2  -2  -5  986.19   25.27
  -2   2   5 1066.75   25.56
   2  -2  -5  955.06   25.18
  -2   2   5 1063.78   25.23
   2  -2  -5  983.31   24.58
  -2   2   4   44.96    4.29
  -2   2   4   39.70    4.49
   2  -2  -4   41.38    4.72
   2  -2  -4   42.10    4.81
   2  -2  -4   41.89    4.76
   2  -2  -4   38.04    4.12
  -2   2   4   43.49    4.76
  -2   2   4   38.95    3.75
   2  -2  -4   42.15    3.94
  -2   2   4   39.04    4.47
  -2   2   3  672.86   16.31
   2  -2  -3  669.33   11.54
  -2   2   3  660.29   12.01
   2  -2  -3  684.66   17.05
   2  -2  -3  671.24   16.28
   2  -2  -3  661.44   16.01
  -2   2   3  646.04   15.44
   2  -2  -3  678.54   13.42
  -2   2   3  690.52   16.57
   2  -2  -3  679.57   16.65
  -2   2   3  605.40   16.27
  -2   2   3  624.89   13.01
   2  -2  -2 4471.88   44.42
   2  -2  -2 4597.67   46.07
   2  -2  -2 4643.36   48.64
  -2   2   2 4582.91   47.97
  -2   2   2 4683.27   43.10
  -2   2   2 4638.34   48.88
  -2   2   2 4640.39   45.58
  -2   2   2 4692.85   45.92
  -2   2   2 4679.47   44.52
   2  -2  -2 4648.60   46.10
   2  -2  -2 4707.42   48.97
  -2   2   1  830.49   15.35
   2  -2  -1  868.94   16.29
   2  -2  -1  873.57   17.28
  -2   2   1  858.00   15.95
  -2   2   1  817.72   16.53
   2  -2  -1  840.21   13.59
   2  -2  -1  807.39   15.81
  -2   2   1  853.75   16.14
  -2   2   0   87.23    4.70
   2  -2   0   85.40    5.28
  -2   2   0   87.27    5.21
  -2   2   0   82.01    5.12
   2  -2   0   83.99    5.11
  -2   2   0   87.06    5.09
   2  -2   1    3.37    1.57
  -2   2  -1    4.54    1.79
  -2   2  -1    4.59    1.54
  -2   2  -1    2.78    1.19
   2  -2   1    4.10    1.50
   2  -2   2 2309.03   34.01
  -2   2  -2 2285.27   36.45
  -2   2  -2 2153.55   35.53
  -2   2  -2 2334.21   34.34
  -2   2  -2 2329.94   34.24
   2  -2   3 3720.26   44.65
  -2   2  -3 3773.21   50.30
  -2   2  -3 3646.51   46.81
  -2   2  -4  369.78   14.23
   2   2   4  453.27   17.27
  -2  -2  -4  431.08   16.10
  -2   2  -4  310.45   14.56
   2   2   4  386.72   14.87
  -2  -2  -4  423.89   16.46
  -2  -2  -4  414.90   15.29
  -2   2  -4  288.27   12.96
   2  -2   4  387.49   14.14
   2   2   5 1496.77   33.10
  -2  -2  -5 1429.59   32.25
   2   2   5 1441.82   30.55
  -2  -2  -5 1507.26   31.17
  -2  -2  -6  149.43   11.56
   2   2   6  141.78   10.76
  -2  -2  -6  151.87   10.34
  -2  -2  -6  129.21   10.38
   2   2   6  129.18    9.91
  -2  -2  -6  143.96   10.31
   2   2   7    4.33    2.98
  -2  -2  -7   -0.02    3.75
  -2  -2  -7   -4.19    3.82
  -2  -2  -7    0.05    3.10
   2   2   7   -1.51    3.89
   2   2   8   49.78    7.52
  -2  -2  -8   77.51   10.76
   2   2   8   53.50    8.20
  -2  -2  -8   59.84    8.53
  -2  -2  -9   15.79    7.01
   2   2   9   21.93    7.05
  -2   3   8  382.93   19.30
  -2   3   8  384.07   19.88
   2  -3  -8  375.92   20.33
   2  -3  -8  371.72   19.22
   2  -3  -8  368.17   20.24
  -2   3   8  391.38   20.22
   2  -3  -7  249.70   15.42
  -2   3   7  266.38   15.22
  -2   3   7  230.22   14.49
   2  -3  -7  252.46   15.42
   2  -3  -7  252.98   14.84
  -2   3   7  242.67   14.34
  -2   3   6   48.38    5.90
   2  -3  -6   52.38    6.46
  -2   3   6   42.12    5.89
   2  -3  -6   43.16    6.17
   2  -3  -6   46.89    6.53
  -2   3   6   51.25    6.40
  -2   3   5 1225.49   28.57
   2  -3  -5 1161.78   28.05
   2  -3  -5 1161.90   28.21
   2  -3  -5 1186.40   28.63
  -2   3   5 1219.35   28.50
  -2   3   5 1212.30   27.98
   2  -3  -4 1787.81   32.97
   2  -3  -4 1708.80   31.12
   2  -3  -4 1794.33   32.91
  -2   3   4 1755.72   29.41
  -2   3   4 1699.61   31.68
  -2   3   4 1672.42   31.09
   2  -3  -4 1787.40   32.20
  -2   3   4 1699.34   32.16
  -2   3   3  746.29   18.78
   2  -3  -3  763.65   19.69
   2  -3  -3  739.98   19.24
  -2   3   3  824.82   20.18
  -2   3   3  774.53   18.87
   2  -3  -3  774.16   19.64
  -2   3   3  803.88   20.28
   2  -3  -3  761.59   18.65
   2  -3  -2   67.21    5.56
   2  -3  -2   78.65    6.17
  -2   3   2   82.34    6.86
  -2   3   2   76.28    6.05
   2  -3  -2   62.82    4.81
   2  -3  -2   51.61    3.94
  -2   3   2   96.38    6.68
  -2   3   2   82.74    6.65
  -2   3   1 3376.28   65.66
  -2   3   1 3127.39   66.98
   2  -4  -8  163.80   14.96
  -2   4   8  181.20   14.94
   2  -4  -8  183.00   14.63
   2  -4  -8  182.99   15.58
  -2   4   8  179.87   15.41
  -2   4   8  190.86   15.95
   2  -4  -7  582.43   25.45
   2  -4  -7  543.54   24.46
  -2   4   7  624.93   26.69
   2  -4  -7  579.82   24.24
  -2   4   7  553.80   24.68
  -2   4   7  556.17   24.13
  -2   4   6  146.56   12.34
   2  -4  -6  136.95   11.08
   2  -4  -6  126.02   10.85
  -2   4   6  138.64   11.54
   2  -4  -6  154.83   12.43
  -2   4   6  145.74   12.12
  -2   4   5   11.99    4.08
   2  -4  -5   10.83    3.87
  -2   4   5   24.17    5.73
   2  -4  -5    9.90    3.33
   2  -4  -5   11.52    4.72
   2  -4  -4  807.51   23.75
  -2   4   4  755.11   25.91
  -2   4   4  729.39   26.46
   2  -4  -4  776.98   23.32
  -2   4   4  735.53   27.38
  -3   0   1    0.93    1.43
  -3   0   1    0.35    1.12
   3   0   0 3541.73   41.43
  -3   0   0 3522.79   43.87
  -3   0   0 3574.79   40.22
  -3   0   0 3625.61   41.83
  -3   0   0 3628.63   41.95
  -3   0  -1   -0.99    1.81
   3   0   1   -1.39    2.10
   3   0   1   -0.16    1.58
  -3   0  -1   -0.06    1.89
  -3   0  -1   -0.37    1.60
  -3   0  -1   -0.07    1.04
  -3   0  -1   -3.46    2.01
   3   0   2   59.05    5.03
   3   0   2   60.42    4.61
  -3   0  -2   62.22    5.15
  -3   0  -2   61.00    5.09
  -3   0  -2   60.91    4.57
  -3   0  -2   61.13    5.09
   3   0   2   55.62    4.82
  -3   0  -3    2.51    2.07
   3   0   3    1.15    2.31
   3   0   3   -3.67    2.69
  -3   0  -3   -0.44    1.49
  -3   0  -3   -2.38    2.32
   3   0   3   -0.51    1.91
  -3   0  -3    1.48    2.12
   3   0   4   87.79    6.62
   3   0   4   96.59    7.71
   3   0   4   94.28    7.42
  -3   0  -4   96.18    7.59
  -3   0  -4   93.98    7.38
  -3   0  -4  103.43    6.95
  -3   0  -4   85.86    6.52
  -3   0  -5   -0.20    2.31
   3   0   5   -3.08    2.88
  -3   0  -5   -0.25    2.45
   3   0   5    5.22    2.95
   3   0   6 2551.88   47.81
  -3   0  -6 2597.39   49.15
  -3   0  -6 2556.33   47.83
   3   0   7   -4.00    3.85
   3   0   7   -0.28    3.88
  -3   0  -7   -6.29    4.10
  -3   0  -7   -3.36    3.40
  -3   0  -8   50.19    8.04
   3   0   8   45.89    8.04
   3   0   8   73.12    9.41
  -3   0  -8   58.79    9.12
  -3   1   6   44.28    6.02
  -3   1   6   41.86    6.10
   3  -1  -6   40.88    6.21
   3  -1  -6   46.43    6.74
   3  -1  -6   37.71    6.01
  -3   1   6   45.38    6.51
  -3   1   5  130.64    9.24
   3  -1  -5  133.52    9.78
   3  -1  -5  127.60    9.57
  -3   1   5  143.16   10.00
   3  -1  -5  131.94    9.65
  -3   1   5  150.07   10.08
  -3   1   4   53.93    5.49
  -3   1   4   56.19    5.67
   3  -1  -4   50.59    5.71
  -3   1   4   61.71    5.80
  -3   1   4   56.96    5.54
   3  -1  -4   44.14    4.93
   3  -1  -4   55.20    5.72
  -3   1   3   49.84    4.84
   3  -1  -3   54.04    4.99
  -3   1   3   61.08    5.23
   3  -1  -3   55.56    4.91
  -3   1   3   43.76    4.42
   3  -1  -3   51.25    5.17
  -3   1   3   54.45    3.98
  -3   1   3   53.16    4.71
  -3   1   2 2700.16   35.19
   3  -1  -2 2631.26   33.00
   3  -1  -2 2625.55   34.17
  -3   1   2 2576.56   33.37
   3  -1  -2 2658.03   35.44
   3  -1  -2 2577.98   31.48
  -3   1   2 2638.65   35.39
  -3   1   2 2613.23   32.06
  -3   1   2 2603.83   31.40
  -3   1   2 2606.88   33.69
  -3   1   1 1731.07   24.87
   3  -1  -1 1712.86   25.60
   3  -1  -1 1742.73   24.77
  -3   1   1 1660.03   25.02
  -3   1   1 1705.48   26.46
  -3   1   1 1728.84   20.96
  -3   1   1 1666.65   19.91
  -3   1   1 1707.35   25.86
  -3   1   0    4.76    1.64
   3  -1   0    1.96    1.36
   3  -1   0    3.50    1.20
  -3   1   0    2.58    0.99
   3  -1   0    1.58    0.82
  -3   1   0    0.71    1.06
  -3   1   0    2.31    1.26
  -3   1   0    2.66    1.44
  -3   1  -1  131.33    7.23
   3  -1   1  128.12    7.25
   3  -1   1  125.70    6.97
  -3   1  -1  128.87    6.36
   3  -1   1  123.22    5.24
  -3   1  -1  136.84    7.07
  -3   1  -1  120.07    5.21
  -3   1  -1  128.88    7.39
   3  -1   2   65.24    4.42
  -3   1  -2   66.77    4.34
   3  -1   2   71.81    5.69
   3  -1   2   63.74    4.61
  -3  -1  -2   47.91    5.23
  -3   1  -2   65.71    5.32
  -3   1  -2   58.79    4.60
  -3   1  -2   71.01    5.52
  -3   1  -2   64.61    5.51
  -3   1  -3  244.64   10.53
   3   1   3  226.77   11.08
   3  -1   3  235.61   11.13
   3   1   3  242.98   12.14
   3  -1   3  224.47    9.86
  -3  -1  -3  233.89   11.01
  -3   1  -3  241.85   11.27
   3  -1   3  221.94   10.58
   3   1   3  226.38    9.06
  -3  -1  -3  231.56   10.60
  -3  -1  -3  247.44    9.38
  -3   1  -3  250.18   10.39
  -3  -1  -3  221.33    9.75
  -3   1  -3  232.41   10.55
   3  -1   4  856.12   21.69
  -3   1  -4  879.15   21.82
   3  -1   4  878.75   21.27
   3   1   4  846.95   22.97
   3   1   4  836.39   22.87
  -3   1  -4  839.59   20.82
   3  -1   4  871.08   23.91
   3  -1   4  835.57   21.46
  -3  -1  -4  861.35   22.54
  -3   1  -4  828.56   22.91
  -3  -1  -4  853.38   22.31
  -3   1  -4  907.73   22.55
  -3  -1  -4  852.04   19.81
   3   1   5  432.31   17.43
   3  -1   5  482.04   18.49
   3   1   5  430.68   17.45
   3  -1   5  437.70   17.05
  -3  -1  -5  440.44   17.14
  -3   1  -5  426.58   17.53
  -3  -1  -5  429.10   17.26
  -3   1  -5  444.75   17.54
   3   1   6  260.98   14.58
   3  -1   6  258.89   15.19
   3   1   6  262.21   15.02
   3  -1   6  247.44   13.99
  -3  -1  -6  272.86   15.09
  -3   1  -6  262.09   15.05
  -3  -1  -6  225.09   13.77
  -3   1  -6  260.16   14.98
   3   1   7   29.56    5.72
   3  -1   7   37.45    7.54
  -3   1  -7   33.94    6.92
   3   1   7   27.00    6.40
   3  -1   7   22.72    5.36
  -3  -1  -7   36.98    6.88
  -3   1  -7   24.35    5.91
  -3  -1  -7   27.94    6.07
   3  -1   8  123.02   12.44
   3   1   8  137.76   13.12
   3  -1   8  119.61   11.48
  -3   1  -8   81.04   11.28
  -3  -1  -8  115.88   11.59
  -3   1  -8  125.69   13.98
  -3   2   8  165.92   14.31
  -3   2   8  110.54   11.45
   3  -2  -8  158.68   13.70
  -3   2   8  153.72   12.83
   3  -2  -8  134.22   12.49
   3  -2  -8  149.59   14.15
  -3   2   7   40.28    7.09
  -3   2   7   41.25    6.62
   3  -2  -7   37.50    6.39
   3  -2  -7   33.48    6.03
  -3   2   7   37.61    6.61
   3  -2  -7   38.29    7.04
  -3   2   6  192.05   12.34
   3  -2  -6  180.43   12.24
   3  -2  -6  197.31   12.83
   3  -2  -6  182.10   12.23
  -3   2   6  184.57   11.71
  -3   2   6  195.91   12.47
  -3   2   5  518.41   18.08
  -3   2   5  525.34   18.71
  -3   2   5  541.00   18.35
   3  -2  -5  531.21   19.30
   3  -2  -5  558.49   19.47
   3  -2  -5  511.44   16.76
  -3   2   5  519.85   17.29
   3  -2  -5  530.71   18.92
  -3   2   4  565.81   18.15
  -3   2   4  531.27   16.65
   3  -2  -4  556.60   18.33
  -3   2   4  526.52   16.48
   3  -2  -4  567.47   17.37
   3  -2  -4  535.93   16.97
  -3   2   4  525.67   16.29
   3  -2  -4  543.05   16.66
   3  -2  -3 2954.35   41.88
   3  -2  -3 2854.51   38.50
   3  -2  -3 2983.07   40.98
   3  -2  -3 2931.25   38.82
  -3   2   3 2993.11   41.14
  -3   2   3 2967.38   38.50
  -3   2   3 2909.80   35.37
  -3   2   3 3022.91   41.75
  -3   2   3 2834.91   38.25
   3  -2  -2   86.11    5.45
  -3   2   2   71.09    4.82
   3  -2  -2   86.51    5.24
   3  -2  -2   78.34    4.93
   3  -2  -2   74.67    4.76
   3  -2  -2   76.12    5.88
   3  -2  -2   76.19    5.90
  -3   2   2   80.33    5.99
  -3   2   2   82.54    5.00
  -3   2   2   76.83    5.31
  -3   2   2   69.78    5.10
  -3   2   2   75.65    5.90
   3  -2  -1  738.75   17.10
   3  -2  -1  714.05   12.85
   3  -2  -1  803.70   13.53
   3  -2  -1  781.71   16.63
   3  -2  -1  708.58   17.20
  -3   2   1  766.00   17.81
  -3   2   1  763.61   13.74
  -3   2   1  736.19   13.28
  -3   2   1  752.31   17.00
  -3   2   1  726.57   16.22
  -3   2   1  780.79   17.20
   3  -2   0 2726.41   36.23
  -3   2   0 2561.39   35.85
   3  -2   0 2656.88   31.56
   3  -2   0 2545.12   34.96
  -3   2   0 2557.32   34.67
  -3   2   0 2625.12   31.93
  -3   2   0 2505.92   35.02
  -3   2   0 2662.66   30.80
   3  -2   1  146.06    8.17
   3  -2   1  166.86    7.95
  -3   2  -1  150.85    7.17
   3  -2   1  150.47    5.69
  -3   2  -1  153.92    7.66
  -3   2  -1  141.22    7.79
  -3   2  -1  154.67    5.46
  -3   2  -1  142.47    7.71
   3  -2   2   59.00    5.43
   3  -2   2   63.04    4.89
  -3   2  -2   60.87    4.61
   3  -2   2   56.94    4.43
  -3   2  -2   52.21    5.09
  -3   2  -2   49.71    4.98
  -3   2  -2   55.31    5.15
   3  -2   3    4.82    2.52
  -3   2  -3    4.79    2.13
  -3   2  -3    5.52    2.31
   3  -2   3    3.47    1.76
  -3   2  -3    1.93    1.65
  -3   2  -3    7.24    2.65
   3  -2   4  571.44   17.18
  -3   2  -4  572.31   19.62
  -3   2  -4  600.28   20.64
  -3   2  -4  607.81   22.66
  -3   2  -4  586.21   18.52
   3  -2   5  976.35   25.28
  -3  -2  -5  863.98   28.45
  -3   2  -5 1076.28   29.90
  -3  -2  -5  889.87   29.50
   3   2   5 1026.77   28.25
  -3   2  -5  932.90   29.64
   3   2   6   57.11    8.39
  -3  -2  -6   62.13    7.79
   3  -2   6   47.14    6.25
  -3   2  -6   44.92    7.28
  -3  -2  -6   70.35    8.91
   3   2   7  326.27   19.64
  -3  -2  -7  315.57   18.38
  -3  -2  -7  323.04   19.60
   3   2   8   50.54    9.19
  -3  -2  -8   32.04    8.64
  -3   3   8   52.81    8.09
   3  -3  -8   33.57    6.98
  -3   3   8   56.44    8.92
   3  -3  -8   39.62    7.46
  -3   3   8   46.84    7.92
   3  -3  -8   47.09    7.93
  -3   3   7  350.25   18.04
  -3   3   7  371.63   18.84
   3  -3  -7  354.29   18.36
   3  -3  -7  371.80   19.49
   3  -3  -7  370.90   19.28
  -3   3   7  359.90   18.28
  -3   3   6  720.49   23.90
   3  -3  -6  716.84   24.38
   3  -3  -6  706.02   24.64
  -3   3   6  718.56   23.63
   3  -3  -6  733.14   24.71
  -3   3   6  681.91   23.53
  -3   3   5  363.10   15.88
   3  -3  -5  356.57   15.54
   3  -3  -5  370.66   16.49
   3  -3  -5  384.27   16.50
  -3   3   5  376.48   14.61
  -3   3   5  366.16   15.44
  -3   3   5  386.65   16.04
   3  -3  -5  381.32   15.51
  -3   3   4    3.25    2.04
   3  -3  -4    3.29    2.68
   3  -3  -4    3.95    2.40
   3  -3  -4    6.85    2.37
  -3   3   4   10.30    3.12
   3  -3  -4    5.18    2.27
  -3   3   4    3.88    1.88
  -3   3   4    6.74    2.80
   3  -3  -3 2545.30   36.78
  -3   3   3 2395.45   35.57
   3  -3  -3 2403.82   38.78
   3  -3  -3 2530.75   39.73
  -3   3   3 2434.10   38.27
   3  -3  -3 2376.30   36.33
  -3   3   3 2422.70   36.50
  -3   3   3 2483.86   39.44
   3  -3  -2 2015.16   31.95
   3  -3  -2 1898.16   31.79
   3  -3  -2 1959.48   33.56
  -3   3   2 1941.16   29.70
  -3   3   2 1960.66   33.18
  -3   3   2 1935.76   28.04
  -3   3   2 1937.47   32.23
  -3   3   2 1910.96   35.02
   3  -3  -2 1925.55   28.10
   3  -3  -1  977.18   22.28
   3  -3  -1  934.39   21.07
   3  -3  -1  880.94   21.43
  -3   3   1  904.77   22.10
  -3   3   1  999.83   23.62
  -3   3   1  927.04   20.54
  -3   3   1  928.14   20.88
  -3   3   0   16.04    3.02
   3  -3   0   17.22    3.61
   3  -3   0   12.12    2.74
  -3   3   0   17.87    3.34
  -3   3   0   17.58    3.65
  -3   3   0   15.54    3.24
   3  -3   1 1157.44   26.05
  -3   3  -1 1080.37   27.96
  -3   3  -1 1160.22   28.00
  -3   3  -1 1139.94   28.66
  -3   3  -2  122.21   11.05
  -3   3  -2  112.38    9.96
  -3   3  -2  123.79   10.01
   3  -4  -8   14.11    4.93
  -3   4   8    8.38    5.05
   3  -4  -8   17.51    5.98
  -3   4   8    8.04    4.93
   3  -4  -8   19.41    6.97
  -3   4   8   21.53    6.74
  -3   4   7   79.13    9.28
   3  -4  -7   85.21   10.11
   3  -4  -7   90.02   10.20
   3  -4  -7   92.06    9.93
  -3   4   7   88.82    9.85
  -3   4   7   87.27   10.51
   3  -4  -6  250.55   15.18
   3  -4  -6  257.71   15.23
   3  -4  -6  241.27   15.02
  -3   4   6  249.18   15.51
  -3   4   6  261.25   15.91
  -3   4   6  211.67   14.09
   3  -4  -5 1347.34   33.01
   3  -4  -5 1476.85   36.46
   3  -4  -5 1350.14   33.91
   3  -4  -5 1464.62   34.65
  -3   4   5 1359.82   32.05
  -3   4   5 1475.39   36.67
  -3   4   5 1485.72   36.27
  -3   4   5 1444.09   36.14
   3  -4  -4  106.82    8.99
   3  -4  -4  122.64    9.88
  -3   4   4  124.76    9.72
  -3   4   4  133.19   10.09
   3  -4  -4  105.77    8.40
  -3   4   4  125.21   10.56
  -3   4   3    4.90    3.09
   3  -4  -3    6.80    2.37
  -3   4   3    1.97    2.42
   3  -4  -3    4.64    2.28
   3  -4  -3    7.60    4.16
  -3   4   3    5.50    3.16
   3  -4  -2 1031.30   26.82
  -3   4   2 1061.95   35.92
  -3   4   2 1021.32   36.73
   3  -4  -2 1010.62   22.13
  -3   4   2  931.82   32.66
  -3   5   7    0.85    6.21
  -3   5   7    0.56    9.40
   3  -5  -7   -0.11    4.60
  -3   5   6    0.78    6.83
  -3   5   6    9.79    9.76
   3  -5  -6   17.63    5.39
  -4   0   0 1263.36   23.90
  -4   0   0 1330.08   25.77
  -4   0   0 1314.84   25.52
  -4   0  -1   -1.66    1.78
   4   0   1   -3.39    2.42
   4   0   1   -1.11    1.84
  -4   0  -1   -0.09    2.18
  -4   0  -1    0.60    1.06
  -4   0  -1    0.61    1.96
   4   0   2  868.63   21.90
  -4   0  -2  879.62   22.32
  -4   0  -2  864.70   19.05
  -4   0  -2  890.16   22.17
   4   0   2  882.64   22.33
  -4   0  -2  872.91   22.13
  -4   0  -3   -3.24    2.89
   4   0   3    2.10    3.01
   4   0   3   -0.08    2.57
   4   0   3   -1.86    2.19
  -4   0  -3   -0.39    2.25
  -4   0  -3   -3.19    2.43
  -4   0  -3   -0.88    2.38
  -4   0  -4   36.67    5.00
   4   0   4   33.31    4.93
   4   0   4   42.23    6.08
   4   0   4   34.69    5.02
  -4   0  -4   44.06    6.13
  -4   0  -4   42.13    5.42
  -4   0  -4   33.17    4.87
  -4   0  -5    2.60    2.62
   4   0   5   -2.74    4.27
   4   0   5    1.01    3.20
  -4   0  -5   -3.63    3.14
   4   0   6    8.19    3.82
  -4   0  -6    3.14    2.74
   4   0   6    8.96    3.74
  -4   0  -6    7.42    4.12
   4   0   7    6.62    5.84
   4   0   7    1.84    4.13
  -4   0  -7    4.99    5.53
  -4   0  -7   10.60    4.51
  -4   0  -8  571.59   26.19
  -4   1   5 1012.22   28.18
   4  -1  -5 1133.25   29.23
   4  -1  -5 1082.73   27.25
  -4   1   5 1193.61   29.91
  -4   1   4  142.11    9.77
   4  -1  -4  135.17    9.82
   4  -1  -4  132.81    9.12
  -4   1   4  122.67    9.97
  -4   1   4  168.05   10.35
  -4   1   3  176.23   10.17
   4  -1  -3  149.34    9.71
  -4   1   3  167.89   10.11
  -4   1   3  180.45    9.05
  -4   1   3  181.02    9.35
  -4   1   2   58.83    5.76
  -4   1   2   48.54    4.90
   4  -1  -2   49.05    5.02
  -4   1   2   56.68    5.60
  -4   1   2   56.77    5.13
  -4   1   1    6.01    2.21
  -4   1   1    3.51    1.71
   4  -1  -1    5.84    2.88
   4  -1  -1    3.38    1.56
  -4   1   1    2.17    1.67
  -4   1   1    3.39    1.32
  -4   1   1    5.09    2.13
   4  -1   0 1479.54   27.81
   4  -1   0 1524.59   25.61
   4  -1   0 1482.61   23.00
  -4   1   0 1435.24   26.48
  -4   1   0 1500.66   24.73
  -4   1   0 1485.27   27.61
  -4   1   0 1510.29   28.01
   4  -1   1  112.50    7.88
   4  -1   1  123.66    7.63
  -4   1  -1  121.69    7.12
  -4   1  -1  120.23    7.63
  -4   1  -1  130.05    8.30
  -4   1  -1  120.51    8.03
   4  -1   2    4.80    2.57
   4  -1   2    5.97    3.04
   4  -1   2    6.72    2.19
  -4   1  -2    6.00    2.08
  -4   1  -2    2.21    2.32
  -4   1  -2    2.76    2.75
  -4   1  -2    7.03    2.55
   4  -1   3   14.14    3.65
   4  -1   3   17.71    4.33
   4  -1   3    9.75    3.39
  -4   1  -3   12.40    2.96
   4  -1   3    9.21    3.11
  -4  -1  -3    6.98    3.07
  -4   1  -3   10.62    3.31
  -4  -1  -3   10.42    3.27
  -4  -1  -3    7.82    3.00
  -4   1  -3   10.16    3.49
  -4   1  -3   14.57    3.47
  -4   1  -4   20.74    4.34
   4  -1   4   20.10    4.31
   4  -1   4   19.58    4.53
   4   1   4   20.76    4.94
   4  -1   4   22.27    4.73
  -4  -1  -4   17.38    4.14
   4  -1   4   21.55    4.29
  -4   1  -4   20.77    4.60
  -4  -1  -4   16.87    3.62
  -4   1  -4   17.49    3.64
  -4  -1  -4   12.35    3.12
  -4   1  -4   15.19    3.77
   4   1   5  203.70   14.55
   4  -1   5  166.85   11.92
   4   1   5  185.68   14.01
   4  -1   5  148.70   10.38
  -4   1  -5  179.24   12.55
  -4   1  -5  160.96   11.27
   4   1   6  170.22   12.96
   4  -1   6  179.29   13.83
   4   1   6  174.29   13.58
   4  -1   6  162.95   11.72
  -4  -1  -6  196.53   13.63
  -4   1  -6  170.00   12.67
  -4  -1  -6  173.77   12.82
  -4   1  -6  189.34   13.58
   4   1   7  255.29   16.70
   4  -1   7  231.37   16.31
   4   1   7  262.73   17.99
   4  -1   7  204.73   14.23
  -4  -1  -7  245.99   16.72
  -4   1  -7  208.72   15.72
  -4  -1  -7  242.03   16.51
  -4   1  -7  252.74   17.02
   4   1   8  115.81   13.38
  -4  -1  -8  137.32   14.00
  -4   1  -8  135.63   14.40
  -4   2   7   65.22    8.54
  -4   2   7   60.63    8.92
   4  -2  -7   47.42    8.15
   4  -2  -7   45.77    7.32
  -4   2   6  321.23   17.12
   4  -2  -6  299.52   16.81
   4  -2  -6  286.98   16.23
   4  -2  -6  289.72   17.10
  -4   2   6  329.24   17.36
  -4   2   6  309.94   17.29
  -4   2   5    6.84    3.63
  -4   2   5   12.36    3.81
   4  -2  -5   13.32    3.84
   4  -2  -5   10.00    3.59
  -4   2   5   13.75    3.85
   4  -2  -5   15.80    4.19
  -4   2   5    5.25    2.57
   4  -2  -5   11.74    3.80
  -4   2   4  601.85   20.12
   4  -2  -4  570.15   20.05
   4  -2  -4  601.46   19.96
  -4   2   4  617.49   19.97
  -4   2   4  610.11   18.20
   4  -2  -4  638.74   19.93
   4  -2  -3  937.42   23.58
   4  -2  -3  951.43   23.97
  -4   2   3  856.42   22.79
  -4   2   3  885.97   23.03
   4  -2  -2  680.99   18.06
   4  -2  -2  669.18   18.55
   4  -2  -2  677.81   19.36
  -4   2   2  652.22   19.32
  -4   2   2  689.98   17.88
  -4   2   2  673.24   17.93
  -4   2   2  636.10   18.10
   4  -2  -1 2582.96   38.72
   4  -2  -1 2511.62   38.07
   4  -2  -1 2557.61   36.46
   4  -2  -1 2552.57   38.92
  -4   2   1 2663.75   39.67
  -4   2   1 2621.48   38.28
  -4   2   1 2559.44   38.44
  -4   2   1 2500.08   34.93
   4  -2   0  178.66    9.77
   4  -2   0  174.21    9.45
   4  -2   0  181.05    8.41
   4  -2   0  179.72    9.45
  -4   2   0  159.13    9.09
  -4   2   0  172.38    8.17
  -4   2   0  172.88    9.53
  -4   2   0  169.78    9.58
   4  -2   1  381.44   14.78
   4  -2   1  382.38   13.78
   4  -2   1  369.17   13.35
  -4   2  -1  358.70   13.27
  -4   2  -1  384.23   13.57
  -4   2  -1  376.03   14.65
  -4   2  -1  365.62   14.09
   4  -2   2  693.21   20.58
   4  -2   2  705.52   20.40
   4  -2   2  684.90   18.51
  -4   2  -2  742.41   18.10
  -4   2  -2  707.18   20.21
  -4   2  -2  695.00   20.74
  -4   2  -2  703.67   20.19
   4  -2   3   10.91    3.42
   4  -2   3    6.96    3.56
  -4   2  -3    4.05    2.56
  -4   2  -3    6.13    3.04
  -4   2  -3    7.84    3.52
   4  -2   4   11.19    3.77
   4  -2   4   13.26    4.80
  -4   2  -4   12.72    4.24
  -4   2  -4    7.93    3.34
  -4   2  -4    8.33    3.30
   4  -2   5    1.96    3.45
   4  -2   5   10.95    4.39
   4  -2   5    5.03    3.22
  -4   2  -5   14.31    4.21
  -4   2  -5    7.28    2.93
  -4   2  -5    8.92    4.33
   4  -2   6  124.55   11.71
   4  -2   6  112.07    9.58
  -4   2  -6  143.09   12.55
  -4   2  -6  113.31   11.87
   4  -2   7  205.48   13.96
  -4   2  -7  192.10   17.00
   4  -3  -8    2.96    4.77
  -4   3   8    5.90    4.17
  -4   3   8   -5.38    5.14
  -4   3   7    9.28    3.58
   4  -3  -7   19.62    5.40
   4  -3  -7   19.06    5.95
   4  -3  -7   15.64    5.70
  -4   3   7   10.81    3.54
  -4   3   7   10.14    3.96
  -4   3   6   39.83    6.55
   4  -3  -6   38.95    6.76
   4  -3  -6   42.33    6.69
   4  -3  -6   36.89    6.23
  -4   3   6   32.75    6.04
   4  -3  -5  794.14   26.09
   4  -3  -5  812.81   24.93
  -4   3   5  781.41   24.04
   4  -3  -5  824.80   24.89
  -4   3   5  806.45   23.44
  -4   3   5  800.73   25.36
   4  -3  -4 1026.05   27.59
   4  -3  -4 1029.03   27.13
  -4   3   4 1013.37   26.35
  -4   3   4 1058.25   27.83
   4  -3  -3  270.85   13.47
   4  -3  -3  277.19   13.67
  -4   3   3  290.52   13.60
  -4   3   3  290.88   13.40
  -4   3   2   13.99    3.33
   4  -3  -2   19.57    4.59
   4  -3  -2   14.99    3.99
   4  -3  -2   17.25    5.95
  -4   3   2   12.85    3.08
  -4   3   2   16.05    3.32
  -4   3   2   17.44    3.63
   4  -3  -1 2500.74   39.67
   4  -3  -1 2470.77   37.77
   4  -3  -1 2454.58   40.37
  -4   3   1 2531.66   40.59
  -4   3   1 2446.90   38.89
  -4   3   1 2479.34   39.22
  -4   3   1 2517.60   36.91
   4  -3   0 1049.73   25.15
   4  -3   0 1073.43   25.17
  -4   3   0  988.25   23.91
  -4   3   0 1002.92   24.28
  -4   3   0 1026.40   24.73
   4  -3   1  191.55   10.79
   4  -3   1  191.63   10.69
  -4   3  -1  176.51   10.12
  -4   3  -1  170.51   10.09
  -4   3  -1  202.99   11.27
  -4   3  -1  200.44   11.24
   4  -3   2   -1.85    2.75
  -4   3  -2    4.23    2.15
  -4   3  -2    1.47    2.07
  -4   3  -2   -1.46    2.66
  -4   3  -2    3.81    2.68
   4  -3   3  379.53   17.17
  -4   3  -3  325.69   16.27
  -4   3  -3  370.87   18.15
  -4   3  -3  368.32   16.60
  -4   3  -4   39.58    6.65
  -4   3  -4   43.11    6.45
  -4   4   7    4.18    4.64
   4  -4  -7    9.60    4.23
   4  -4  -7    7.90    5.94
  -4   4   7    4.54    4.19
  -4   4   6    9.68    4.72
   4  -4  -6   21.71    5.61
  -4   4   6   15.13    4.94
   4  -4  -6   11.73    4.30
   4  -4  -5  185.61   12.88
   4  -4  -5  188.36   12.77
  -4   4   5  180.68   12.24
  -4   4   5  195.08   13.43
   4  -4  -4  250.11   14.37
   4  -4  -4  274.96   14.93
  -4   4   4  272.53   15.27
  -4   4   4  265.45   14.93
   4  -4  -3 1915.61   38.39
   4  -4  -3 1943.04   40.09
  -4   4   3 2001.70   41.52
  -4   4   3 2042.01   41.69
   4  -4  -2   56.00    6.77
   4  -4  -2   60.55    7.12
  -4   4   2   70.71    7.88
  -4   4   2   76.51    7.81
  -4   4   2   65.10    7.06
  -4   4   1   21.40    4.84
   4  -4  -1   13.52    4.05
  -4   4   1   18.35    4.99
  -4   4   1   21.89    5.10
  -4   4   0  761.24   30.85
  -4   4   0  665.82   28.77
  -4   5   6    6.49    5.61
   4  -5  -6    6.06    3.87
  -4   5   5   -5.12    6.14
   4  -5  -5    5.98    4.55
  -4   5   5   -2.74    5.75
  -4   5   4   23.64   10.56
  -4   5   4   25.52    9.32
  -5   0  -1    2.17    1.85
  -5   0  -1   -1.23    2.59
  -5   0  -1   -0.19    2.34
  -5   0  -2  260.00   13.23
  -5   0  -2  264.23   13.47
  -5   0  -2  223.11   12.22
  -5   0  -3   -2.03    2.62
   5   0   3    6.20    3.96
  -5   0  -3   -0.54    2.72
  -5   0  -3   -2.83    2.64
   5   0   4  261.62   14.87
  -5   0  -4  242.51   14.50
  -5   0  -4  268.73   14.38
   5   0   5   -3.08    4.91
  -5   0  -5    1.32    3.58
   5   0   6   39.91    9.19
   5   0   6   41.13    8.24
  -5   0  -6   20.58    6.13
  -5   0  -6   14.63    4.66
   5   0   7    0.04    5.25
  -5   0  -7   -2.42    4.47
  -5   0  -7   -0.77    4.25
   5  -1  -3 1364.14   30.67
  -5   1   3 1195.24   33.51
   5  -1  -2   79.25    6.94
  -5   1   2   96.65    8.56
  -5   1   2   98.13    7.92
   5  -1  -1   55.02    6.03
  -5   1   1   62.00    6.62
  -5   1   1   57.73    6.25
  -5   1   1   52.84    6.05
   5  -1   0  113.58    8.56
  -5   1   0  118.37    8.59
  -5   1   0  122.50    7.75
  -5   1   0  107.70    8.40
  -5   1   0  109.11    8.37
  -5   1  -1   18.47    4.05
   5  -1   1   20.38    4.00
   5  -1   1   20.66    3.79
  -5   1  -1   25.63    4.32
  -5   1  -1   22.66    4.03
  -5   1  -1   24.54    4.83
   5  -1   2  434.74   17.62
   5  -1   2  441.43   17.02
  -5   1  -2  447.40   17.35
  -5   1  -2  448.80   18.01
  -5   1  -2  418.55   17.20
  -5   1  -3   26.06    4.74
   5  -1   3   27.53    5.01
   5  -1   3   31.37    5.88
   5  -1   3   23.42    4.80
  -5   1  -3   29.16    5.18
  -5   1  -3   41.56    6.26
  -5   1  -4    8.44    2.76
   5  -1   4   11.77    4.12
   5  -1   4    0.12    4.00
   5  -1   4    6.65    3.63
  -5   1  -4   16.45    5.08
  -5   1  -4    6.71    3.49
   5  -1   5   -0.43    4.22
   5  -1   5    3.36    4.42
  -5  -1  -5   -2.33    4.59
  -5   1  -5    5.17    3.22
  -5   1  -5    4.29    3.85
   5  -1   6    6.98    5.23
  -5  -1  -6    6.85    6.02
  -5   1  -6    4.71    3.57
  -5  -1  -6    6.08    5.04
  -5  -1  -7   51.68    8.60
  -5   2   6   54.99    7.89
   5  -2  -6   50.36    7.93
   5  -2  -6   47.01    6.88
  -5   2   5   93.77    9.46
   5  -2  -5   84.88    9.23
   5  -2  -5   79.93    8.90
  -5   2   5   84.42    9.59
  -5   2   4  519.61   20.83
   5  -2  -4  484.42   19.76
   5  -2  -4  528.79   20.78
  -5   2   4  539.45   21.12
  -5   2   3   -0.33    3.39
   5  -2  -3    1.87    2.43
   5  -2  -3    1.28    4.44
  -5   2   3    0.73    2.57
  -5   2   2  851.15   23.14
   5  -2  -2  892.18   23.72
   5  -2  -2  803.77   21.88
   5  -2  -2  799.50   23.20
  -5   2   2  784.23   23.68
  -5   2   2  856.04   22.79
  -5   2   2  863.68   23.45
   5  -2  -1  400.49   16.26
   5  -2  -1  394.80   15.94
  -5   2   1  387.85   15.74
  -5   2   1  380.68   15.46
  -5   2   1  381.48   15.63
   5  -2   0  346.95   15.20
   5  -2   0  350.66   15.28
   5  -2   0  360.19   15.24
  -5   2   0  314.95   14.20
  -5   2   0  365.46   15.37
  -5   2   0  336.71   14.94
   5  -2   1  829.99   24.74
   5  -2   1  824.47   24.21
   5  -2   1  804.92   22.07
   5  -2   1  856.84   23.00
  -5   2  -1  773.17   22.10
  -5   2  -1  793.65   21.61
  -5   2  -1  817.42   24.36
  -5   2  -1  782.29   23.39
   5  -2   2  140.48   10.37
   5  -2   2  135.46   10.33
   5  -2   2  137.94    9.90
  -5   2  -2  145.60   10.00
  -5   2  -2  134.79   10.28
  -5   2  -2  130.73    9.86
   5  -2   3  141.48   10.92
   5  -2   3  127.40   10.25
   5  -2   3  117.23    9.96
  -5   2  -3  120.34    9.79
  -5   2  -3  126.58   10.13
  -5   2  -3  129.45   10.12
   5  -2   4  235.84   14.32
   5  -2   4  220.98   13.83
   5  -2   4  210.97   13.70
  -5   2  -4  218.32   14.22
  -5   2  -4  217.65   13.59
  -5   2  -4  214.22   13.43
  -5   2  -5    9.73    4.53
   5  -2   5    3.24    4.59
   5  -2   5    5.25    3.96
   5  -2   5    4.81    3.82
  -5   2  -5    1.99    4.26
  -5   2  -5    4.67    4.23
   5  -2   6   -1.71    4.51
  -5   2  -6   -3.97    5.23
  -5   3   7    8.68    5.03
   5  -3  -7   14.79    6.28
  -5   3   6    2.06    4.11
   5  -3  -6   -5.82    3.89
   5  -3  -6   -4.94    5.29
  -5   3   6   -2.78    3.47
  -5   3   5   62.49    8.19
   5  -3  -5   72.87    8.86
   5  -3  -5   81.79    9.34
  -5   3   5   70.38    8.18
  -5   3   4   10.69    3.76
   5  -3  -4   16.24    4.50
   5  -3  -4    9.48    4.31
  -5   3   4    2.29    3.01
   5  -3  -3 1101.60   29.43
   5  -3  -3 1142.28   30.62
  -5   3   3 1161.20   30.47
  -5   3   3 1159.91   28.86
   5  -3  -2  913.35   24.90
   5  -3  -2  914.16   24.24
   5  -3  -2  893.73   24.51
   5  -3  -2  895.17   26.06
  -5   3   2  740.12   23.64
  -5   3   2  884.95   23.45
  -5   3   2  871.77   23.88
  -5   3   2  769.02   21.92
   5  -3  -1  144.49   10.01
   5  -3  -1  140.35    9.83
   5  -3  -1  149.00   10.48
  -5   3   1  137.69   10.18
  -5   3   1  134.71    9.55
  -5   3   1  137.48    9.86
   5  -3   0   22.84    4.79
   5  -3   0   22.16    4.93
   5  -3   0   18.14    4.62
  -5   3   0   18.35    4.42
  -5   3   0   21.39    4.51
  -5   3   0   18.89    3.99
   5  -3   1 1451.05   33.75
   5  -3   1 1461.48   30.87
   5  -3   1 1427.90   32.31
  -5   3  -1 1422.10   30.80
  -5   3  -1 1393.61   33.04
  -5   3  -1 1421.95   33.01
   5  -3   2  311.78   15.82
   5  -3   2  329.01   15.74
  -5   3  -2  308.10   15.09
  -5   3  -2  326.26   16.08
  -5   3  -2  329.72   16.09
   5  -3   3   66.39    8.21
   5  -3   3   50.06    6.83
  -5   3  -3   59.01    7.53
  -5   3  -3   57.30    7.22
  -5   3  -3   47.76    6.90
   5  -3   4   -3.19    3.82
   5  -3   4   -1.05    4.04
  -5   3  -4    0.11    3.92
  -5   3  -4    3.27    3.77
  -5   3  -4    5.04    3.45
   5  -3   5  202.31   13.05
   5  -3   5  211.69   14.38
  -5   3  -5  197.66   15.95
  -5   3  -5  180.98   14.95
  -5   4   6  230.60   16.52
   5  -4  -6  229.50   16.63
   5  -4  -6  236.80   16.13
  -5   4   5   42.89    7.08
   5  -4  -5   29.37    6.23
   5  -4  -5   41.73    7.63
  -5   4   5   32.94    6.22
  -5   4   4   19.10    5.20
   5  -4  -4   10.49    4.35
   5  -4  -4   11.76    4.30
  -5   4   4   10.42    3.87
   5  -4  -3  249.40   14.49
   5  -4  -3  213.34   13.93
  -5   4   3  231.88   14.58
  -5   4   3  248.90   14.30
   5  -4  -2  176.94   11.56
   5  -4  -2  152.56   11.30
   5  -4  -2  160.48   11.81
  -5   4   2  170.57   12.45
  -5   4   2  184.37   12.68
  -5   4   2  187.64   12.14
  -5   4   2  178.92   11.75
   5  -4  -1 2034.09   41.94
   5  -4  -1 1978.97   42.04
  -5   4   1 2130.18   44.54
  -5   4   1 2051.26   43.85
  -5   4   1 2151.92   44.23
   5  -4   0   32.64    5.78
   5  -4   0   40.81    6.24
  -5   4   0   33.90    6.22
  -5   4   0   37.78    6.49
  -5   4   0   44.55    7.13
   5  -4   1  126.25   11.32
  -5   4  -1  118.83   11.62
  -5   4  -2  246.95   18.95
  -5   4  -2  291.21   20.17
  -5   5   5   -6.71    5.67
   5  -5  -5   -4.38    3.62
  -5   5   5   -5.99    4.70
  -5   5   4   37.37    9.22
   5  -5  -4   36.88    6.74
   5  -5  -4   37.02    6.74
  -5   5   4   42.08    9.71
  -5   5   3   18.86    8.09
   5  -5  -3    8.77    3.61
  -5   5   3   10.67    8.90
  -5   5   2   43.09   10.64
  -5   5   2   63.29   14.97
  -5   5   2   78.34   15.19
  -6   0  -3    1.17    2.90
  -6   0  -3    3.54    3.24
  -6   0  -4  106.62   10.93
  -6   0  -4  108.53   10.98
   6   0   5    0.16    4.85
  -6   0  -5    2.00    4.09
  -6   1   1  511.53   20.02
  -6   1   0   17.28    4.26
  -6   1   0   11.21    4.11
  -6   1  -1   15.52    4.33
   6  -1   1   14.03    4.21
  -6   1  -1   17.64    4.43
  -6   1  -1   13.36    4.44
  -6   1  -2   67.84    7.92
   6  -1   2   65.68    7.85
   6  -1   2   75.54    8.65
  -6   1  -2   71.03    8.37
  -6   1  -2   76.14    8.83
  -6   1  -3   27.81    5.39
   6  -1   3   17.73    5.28
   6  -1   3   25.23    4.63
   6  -1   3   19.11    4.98
  -6   1  -3   28.32    6.07
  -6   1  -3   35.65    6.87
   6  -1   4  136.76   11.97
   6  -1   4  139.06   12.19
   6  -1   4  114.91   10.96
  -6   1  -4  143.61   12.83
  -6   1  -4  112.92   10.61
  -6   1  -4  112.35   10.60
   6  -1   5   32.06    6.88
   6  -1   5   21.58    6.14
  -6   1  -5   22.11    5.23
  -6   1  -5   20.54    5.49
   6  -2  -4   48.65    6.79
   6  -2  -4   44.65    7.03
  -6   2   4   54.57    8.77
   6  -2  -3   87.21    8.39
   6  -2  -3  108.56    9.83
  -6   2   3  124.88   11.19
   6  -2  -2  211.54   12.85
  -6   2   2  239.64   14.67
  -6   2   2  270.12   15.17
  -6   2   2  247.10   13.83
  -6   2   1   27.12    5.40
   6  -2  -1   39.52    6.55
   6  -2  -1   35.86    6.12
  -6   2   1   40.21    6.46
  -6   2   1   34.28    6.19
   6  -2   0  641.11   22.85
   6  -2   0  668.45   23.72
   6  -2   0  622.17   23.08
  -6   2   0  619.54   21.95
  -6   2   0  652.93   23.10
  -6   2   0  648.03   23.36
  -6   2  -1   67.85    7.73
   6  -2   1   60.45    7.94
   6  -2   1   58.28    7.49
   6  -2   1   63.75    7.50
  -6   2  -1   61.71    6.94
  -6   2  -1   57.64    7.70
   6  -2   2  146.53   12.48
   6  -2   2  138.84   11.54
   6  -2   2  149.23   11.20
  -6   2  -2  150.64   11.38
  -6   2  -2  141.85   11.84
  -6   2  -2  145.42   11.49
   6  -2   3  359.41   18.90
   6  -2   3  373.65   18.97
   6  -2   3  344.39   17.80
  -6   2  -3  372.85   18.52
  -6   2  -3  334.28   18.09
  -6   2  -3  353.77   18.17
   6  -2   4  131.02   12.00
   6  -2   4  151.11   12.36
   6  -2   4  142.50   12.25
  -6   2  -4  144.05   12.39
  -6   2  -4  127.12   11.35
  -6   2  -4  143.24   12.23
  -6   2  -5   46.60    9.89
   6  -2   5   42.90    7.96
   6  -2   5   49.02    9.09
   6  -2   5   37.63    7.79
  -6   2  -5   21.35    5.81
  -6   2  -5   36.13    7.62
  -6   3   6    9.03    5.73
   6  -3  -6   -1.42    4.31
   6  -3  -6    2.05    4.18
  -6   3   5   27.06    6.44
   6  -3  -5   24.42    5.92
   6  -3  -5   37.29    7.03
  -6   3   5   26.47    6.29
  -6   3   4    2.82    4.09
   6  -3  -4    1.67    3.08
   6  -3  -4   -1.39    4.51
  -6   3   4    2.30    3.25
  -6   3   3  122.86   11.26
   6  -3  -3  137.61   10.64
   6  -3  -3  131.99   11.79
  -6   3   3  145.98   11.80
  -6   3   2   -2.30    3.08
   6  -3  -2    3.17    4.29
   6  -3  -2    2.75    4.22
   6  -3  -2   -0.93    3.62
  -6   3   2   -0.22    3.42
  -6   3   2    0.63    3.11
   6  -3  -1  656.57   23.97
   6  -3  -1  686.08   24.32
   6  -3  -1  682.36   24.71
  -6   3   1  614.59   22.94
  -6   3   1  645.94   22.86
  -6   3   1  679.45   23.87
   6  -3   0  364.68   18.23
   6  -3   0  369.17   18.00
   6  -3   0  364.93   18.19
  -6   3   0  340.20   16.47
  -6   3   0  341.11   16.96
  -6   3   0  354.72   17.49
   6  -3   1   55.84    7.95
   6  -3   1   56.25    8.08
   6  -3   1   53.59    7.33
  -6   3  -1   55.21    6.73
  -6   3  -1   47.20    7.00
  -6   3  -1   55.08    7.15
   6  -3   2   36.52    6.86
   6  -3   2   41.74    7.10
  -6   3  -2   35.23    6.44
  -6   3  -2   30.46    5.99
   6  -3   3  564.22   24.60
   6  -3   3  528.12   22.48
   6  -3   3  531.87   23.10
  -6   3  -3  557.11   23.45
  -6   3  -3  581.24   24.55
  -6   3  -3  479.52   22.25
   6  -3   4   86.54   10.92
   6  -3   4   62.55    8.57
   6  -3   4   65.36    8.96
  -6   3  -4   64.13    9.02
  -6   3  -4   68.54    9.42
  -6   3  -4   71.16    9.40
  -6   3  -5    9.88    4.99
   6  -3   5   14.15    5.86
   6  -3   5   15.67    6.60
  -6   3  -5    8.35    4.48
  -6   3  -5    3.72    4.41
  -6   4   6  153.53   14.44
  -6   4   5   97.51   11.30
   6  -4  -5   84.91    9.93
  -6   4   5   86.68   10.09
  -6   4   4  232.40   15.78
   6  -4  -4  216.21   14.98
   6  -4  -4  240.78   16.62
  -6   4   4  223.61   15.65
   6  -4  -3   62.23    8.18
   6  -4  -3   66.68    8.33
  -6   4   3   58.44    8.22
  -6   4   2   17.54    4.98
   6  -4  -2   27.18    6.54
   6  -4  -2   16.08    5.45
  -6   4   2   19.41    5.41
   6  -4  -1  191.08   14.04
   6  -4  -1  174.94   12.64
   6  -4  -1  186.47   14.29
  -6   4   1  176.28   13.24
  -6   4   1  179.47   13.18
  -6   4   1  183.97   13.64
   6  -4   0   49.11    8.15
   6  -4   0   40.66    7.47
   6  -4   0   41.41    7.60
  -6   4   0   35.77    6.99
  -6   4   0   36.80    7.01
  -6   4   0   56.76    8.31
   6  -4   1 1333.84   38.45
   6  -4   1 1228.74   35.85
   6  -4   1 1352.14   36.84
  -6   4  -1 1286.60   36.97
  -6   4  -1 1317.26   38.76
  -6   4  -1 1351.50   41.44
   6  -4   2   11.35    5.67
   6  -4   2    5.57    4.49
  -6   4  -2    3.90    5.09
  -6   4  -2    6.59    5.54
   6  -4   3   85.34   10.28
   6  -4   3   85.70   10.62
  -6   4  -3   62.94   11.99
  -6   4  -3   48.67    9.75
  -6   5   5   48.86   10.37
  -6   5   4   -1.48    4.88
   6  -5  -4    2.95    4.26
   6  -5  -4    2.75    5.20
  -6   5   4   -1.65    6.60
   6  -5  -3   -0.67    4.97
  -6   5   3    3.44    5.22
   6  -5  -2   54.75    8.82
  -6   5   2   66.77   12.09
  -6   5   1   26.32   10.93
  -6   5   1   25.53    9.57
  -6   5   0   66.02   21.25
  -7   1  -2    6.10    3.14
  -7   1  -2    0.01    4.01
  -7   1  -2   11.02    4.89
  -7   1  -3   -0.99    2.87
  -7   1  -3   -3.78    4.14
  -7   1  -3   -1.45    4.65
   7  -1   4   33.30    7.63
  -7   1  -4   29.60    8.00
  -7   1  -4   30.58    7.64
   7  -2  -2   26.32    5.84
   7  -2  -2   17.11    4.74
  -7   2   2   26.98    6.81
  -7   2   2   16.30    5.60
   7  -2  -1  123.60   10.62
   7  -2  -1  150.75   11.92
  -7   2   1  131.46   12.50
  -7   2   1  132.27   12.43
  -7   2   1  116.20   10.65
  -7   2   0   60.00    8.18
   7  -2   0   60.31    8.11
   7  -2   0   64.85    8.75
   7  -2   0   63.88    8.18
  -7   2   0   65.08    9.45
  -7   2   0   67.19    8.78
  -7   2  -1   57.16    8.45
   7  -2   1   69.34    9.17
   7  -2   1   59.84    8.42
  -7   2  -1   59.52    8.94
   7  -2   2  397.85   22.02
   7  -2   2  404.15   21.19
  -7   2  -2  385.31   21.28
  -7   2  -2  402.87   20.93
  -7   2  -3    5.03    3.84
   7  -2   3   18.37    6.97
   7  -2   3   20.25    6.25
   7  -2   3   14.61    5.76
  -7   2  -3    8.98    4.46
  -7   2  -3   10.34    6.18
  -7   2  -4   57.37    9.26
   7  -2   4   47.15    8.81
   7  -2   4   46.64    8.81
   7  -2   4   53.90    9.86
  -7   2  -4   31.85    7.12
  -7   2  -4   52.45    8.57
   7  -3  -4    8.47    5.53
  -7   3   4    8.50    4.96
   7  -3  -3   24.42    5.84
  -7   3   3   21.62    5.46
  -7   3   2  -10.89    5.32
   7  -3  -2    7.85    5.02
   7  -3  -2    1.64    4.22
   7  -3  -2    0.24    4.32
  -7   3   2   -3.80    5.93
   7  -3  -1  121.52   11.07
   7  -3  -1  145.70   12.67
   7  -3  -1  135.57   12.47
  -7   3   1  127.92   11.54
  -7   3   1  127.06   11.45
  -7   3   1  126.51   11.90
  -7   3   0    4.38    3.88
   7  -3   0    0.32    4.00
   7  -3   0    3.86    4.48
   7  -3   0    3.80    5.14
  -7   3   0    0.49    3.96
  -7   3   0    6.33    3.76
   7  -3   1  337.34   19.79
   7  -3   1  317.40   18.87
  -7   3  -1  302.83   18.50
  -7   3  -1  283.25   17.37
   7  -3   2  123.42   12.96
   7  -3   2  128.27   12.62
  -7   3  -2  126.87   12.97
  -7   3  -2  114.20   11.31
  -7   3  -3   -4.04    4.14
   7  -3   3    7.08    6.52
  -7   3  -3    2.68    4.47
  -7   3  -4   24.35    7.34
   7  -4  -3   34.56    5.88
  -7   4   3   75.45    9.72
   7  -4  -2  128.80   12.59
  -7   4   2  119.86   12.65
  -7   4   1   33.01    7.33
   7  -4  -1   50.34    8.61
   7  -4  -1   29.61    5.92
   7  -4  -1   55.05    9.17
  -7   4   1   42.62    7.56
  -7   4   1   33.98    6.91
  -7   4   0   18.61    5.22
   7  -4   0   17.71    6.06
   7  -4   0   14.48    5.10
  -7   4   0   12.74    4.69
  -7   4   0    9.65    5.72
   7  -4   1  121.76   13.23
   7  -4   1  109.74   11.91
  -7   4  -1  117.75   12.86
  -7   4  -1  116.05   12.98
  -7   4  -2   19.34    7.50
   7  -4   2   14.51    6.68
   7  -4   2   -0.14    5.40
  -7   4  -2   20.86    6.03
  -7   5   1  -13.12   10.78
   7  -5  -1   -6.98    6.50
   7  -5  -1   12.25    6.60
  -7   5   1    2.69    6.84
   7  -5   0   40.52    8.88
  -7   5   0   35.59   13.30
  -7   5   0   24.03   12.20
   8  -3  -2   15.28    5.86
  -8   3   1   14.20    5.47
   8  -3   0    6.88    4.40
  -8   3   0   13.53    5.53
   0   0   0    0.00    0.00


TITL diethyl_ether_phase_beta_2_45GPa in P2(1)/c
REM P2(1)/c (#14 in standard setting)
CELL 0.71073   6.775894   8.055249   7.687315  90.0000  93.7130  90.0000
ZERR    4.00   0.000290   0.001403   0.000229   0.0000   0.0034   0.0000
LATT  1
SYMM -x, y+1/2,-z+1/2
SFAC C H O
UNIT 16.00 40.00 4.00
TREF
HKLF 4
END
_computing_structure_solution     'SHELXT 2018/2 (Sheldrick, 2018)'
;
_shelx_hkl_checksum              39152
_olex2_submission_special_instructions 'No special instructions were received'
loop_
_space_group_symop_operation_xyz
'x, y, z'
'-x, y+1/2, -z+1/2'
'-x, -y, -z'
'x, -y-1/2, z-1/2'
loop_
_atom_site_label
_atom_site_type_symbol
_atom_site_fract_x
_atom_site_fract_y
_atom_site_fract_z
_atom_site_U_iso_or_equiv
_atom_site_adp_type
_atom_site_occupancy
_atom_site_site_symmetry_order
_atom_site_calc_flag
_atom_site_refinement_flags_posn
_atom_site_refinement_flags_adp
_atom_site_refinement_flags_occupancy
_atom_site_disorder_assembly
_atom_site_disorder_group
O1 O 0.17681(14) 0.3159(3) 0.16662(13) 0.0312(12) Uani 1 1 d . . . . .
C1 C 0.0741(3) 0.4562(4) 0.23044(19) 0.0241(12) Uani 1 1 d . . . . .
H11 H 0.032470 0.529428 0.134822 0.029 Uiso 1 1 calc R U . . .
H12 H 0.160060 0.517948 0.312958 0.029 Uiso 1 1 calc R U . . .
C2 C -0.1030(2) 0.3927(4) 0.3180(2) 0.0326(11) Uani 1 1 d . . . . .
H21 H -0.184224 0.328073 0.236481 0.049 Uiso 1 1 calc R U . . .
H23 H -0.177930 0.484773 0.357653 0.049 Uiso 1 1 calc R U . . .
H22 H -0.059845 0.324591 0.415643 0.049 Uiso 1 1 calc R U . . .
C3 C 0.3452(2) 0.3678(5) 0.0805(2) 0.0333(12) Uani 1 1 d . . . . .
H31 H 0.425157 0.441993 0.155287 0.040 Uiso 1 1 calc R U . . .
H32 H 0.303905 0.427143 -0.025482 0.040 Uiso 1 1 calc R U . . .
C4 C 0.4639(3) 0.2183(4) 0.0373(2) 0.0313(13) Uani 1 1 d . . . . .
H42 H 0.385406 0.147174 -0.039892 0.047 Uiso 1 1 calc R U . . .
H41 H 0.502376 0.159088 0.142415 0.047 Uiso 1 1 calc R U . . .
H43 H 0.579839 0.252722 -0.018446 0.047 Uiso 1 1 calc R U . . .
loop_
_atom_site_aniso_label
_atom_site_aniso_U_11
_atom_site_aniso_U_22
_atom_site_aniso_U_33
_atom_site_aniso_U_23
_atom_site_aniso_U_13
_atom_site_aniso_U_12
O1 0.0273(10) 0.032(4) 0.0362(7) -0.0041(6) 0.0123(6) -0.0022(6)
C1 0.0291(10) 0.015(4) 0.0288(8) -0.0023(9) 0.0021(7) 0.0005(9)
C2 0.0297(12) 0.034(4) 0.0349(8) -0.0045(10) 0.0088(8) 0.0036(10)
C3 0.0274(14) 0.042(5) 0.0313(9) 0.0030(10) 0.0096(9) -0.0014(11)
C4 0.0287(12) 0.033(5) 0.0324(8) -0.0057(10) 0.0062(7) -0.0032(10)
loop_
_atom_type_symbol
_atom_type_description
_atom_type_scat_dispersion_real
_atom_type_scat_dispersion_imag
_atom_type_scat_source
C C 0.0033 0.0016 'International Tables Vol C Tables 4.2.6.8 and 6.1.1.4'
H H 0.0000 0.0000 'International Tables Vol C Tables 4.2.6.8 and 6.1.1.4'
O O 0.0106 0.0060 'International Tables Vol C Tables 4.2.6.8 and 6.1.1.4'
loop_
_geom_angle_atom_site_label_1
_geom_angle_atom_site_label_2
_geom_angle_atom_site_label_3
_geom_angle
_geom_angle_site_symmetry_1
_geom_angle_site_symmetry_3
_geom_angle_publ_flag
C3 O1 C1 110.5(3) . . ?
O1 C1 H11 110.2 . . ?
O1 C1 H12 110.2 . . ?
O1 C1 C2 107.7(3) . . ?
H11 C1 H12 108.5 . . ?
C2 C1 H11 110.2 . . ?
C2 C1 H12 110.2 . . ?
C1 C2 H21 109.5 . . ?
C1 C2 H23 109.5 . . ?
C1 C2 H22 109.5 . . ?
H21 C2 H23 109.5 . . ?
H21 C2 H22 109.5 . . ?
H23 C2 H22 109.5 . . ?
O1 C3 H31 109.9 . . ?
O1 C3 H32 109.9 . . ?
O1 C3 C4 109.0(3) . . ?
H31 C3 H32 108.3 . . ?
C4 C3 H31 109.9 . . ?
C4 C3 H32 109.9 . . ?
C3 C4 H42 109.5 . . ?
C3 C4 H41 109.5 . . ?
C3 C4 H43 109.5 . . ?
H42 C4 H41 109.5 . . ?
H42 C4 H43 109.5 . . ?
H41 C4 H43 109.5 . . ?
loop_
_geom_bond_atom_site_label_1
_geom_bond_atom_site_label_2
_geom_bond_distance
_geom_bond_site_symmetry_2
_geom_bond_publ_flag
O1 C1 1.431(3) . ?
O1 C3 1.419(2) . ?
C1 H11 0.9700 . ?
C1 H12 0.9700 . ?
C1 C2 1.503(3) . ?
C2 H21 0.9600 . ?
C2 H23 0.9600 . ?
C2 H22 0.9600 . ?
C3 H31 0.9700 . ?
C3 H32 0.9700 . ?
C3 C4 1.497(4) . ?
C4 H42 0.9600 . ?
C4 H41 0.9600 . ?
C4 H43 0.9600 . ?
loop_
_geom_torsion_atom_site_label_1
_geom_torsion_atom_site_label_2
_geom_torsion_atom_site_label_3
_geom_torsion_atom_site_label_4
_geom_torsion
_geom_torsion_site_symmetry_1
_geom_torsion_site_symmetry_2
_geom_torsion_site_symmetry_3
_geom_torsion_site_symmetry_4
_geom_torsion_publ_flag
C1 O1 C3 C4 172.31(13) . . . . ?
C3 O1 C1 C2 179.37(10) . . . . ?
