#------------------------------------------------------------------------------
#$Date: 2024-02-04 13:32:22 +0200 (Sun, 04 Feb 2024) $
#$Revision: 289422 $
#$URL: file:///home/coder/svn-repositories/cod/cif/1/57/04/1570482.cif $
#------------------------------------------------------------------------------
#
# This file is available in the Crystallography Open Database (COD),
# http://www.crystallography.net/
#
# All data on this site have been placed in the public domain by the
# contributors.
#
data_1570482
loop_
_publ_author_name
'Dissanayake, Deepamali'
'Draper, Alysia'
'Liu, Zhizhou'
'Jaunnoo, Neelofur'
'Haven, Joris J.'
'Forsyth, Craig'
'McKay, Alasdair I.'
'Junkers, Tanja'
'Vidovi&#x107;, Dragoslav'
_publ_section_title
;
 Lewis acid catalysed polymerisation of cyclopentenone.
;
_journal_issue                   2
_journal_name_full               'Chemical science'
_journal_page_first              639
_journal_page_last               643
_journal_paper_doi               10.1039/d3sc05186b
_journal_volume                  15
_journal_year                    2024
_chemical_formula_moiety         'C23 H25 Al F6 N2 O6 S2'
_chemical_formula_sum            'C23 H25 Al F6 N2 O6 S2'
_chemical_formula_weight         630.55
_space_group_crystal_system      triclinic
_space_group_IT_number           2
_space_group_name_Hall           '-P 1'
_space_group_name_H-M_alt        'P -1'
_atom_sites_solution_hydrogens   geom
_atom_sites_solution_primary     direct
_audit_creation_method           SHELXL-2018/3
_audit_update_record
;
2022-05-29 deposited with the CCDC.	2023-12-01 downloaded from the CCDC.
;
_cell_angle_alpha                75.810(2)
_cell_angle_beta                 72.977(2)
_cell_angle_gamma                66.135(2)
_cell_formula_units_Z            2
_cell_length_a                   9.4060(2)
_cell_length_b                   11.1167(2)
_cell_length_c                   15.5637(3)
_cell_measurement_reflns_used    11884
_cell_measurement_temperature    123(2)
_cell_measurement_theta_max      77.1260
_cell_measurement_theta_min      4.3960
_cell_volume                     1408.04(5)
_computing_cell_refinement       'CrysAlisPro 1.171.40.81a (Rigaku OD, 2020)'
_computing_data_collection       'CrysAlisPro 1.171.40.81a (Rigaku OD, 2020)'
_computing_data_reduction        'CrysAlisPro 1.171.40.81a (Rigaku OD, 2020)'
_computing_structure_refinement  'SHELXL-2018/3 (Sheldrick, 2018)'
_computing_structure_solution    'SHELXS-2018/3 (Sheldrick, 2018)'
_diffrn_ambient_temperature      123(2)
_diffrn_detector_area_resol_mean 10.0000
_diffrn_measured_fraction_theta_full 1.000
_diffrn_measured_fraction_theta_max 0.977
_diffrn_measurement_device_type  'XtaLAB Synergy, Dualflex, HyPix'
_diffrn_measurement_method       '\w scans'
_diffrn_radiation_type           CuK\a
_diffrn_radiation_wavelength     1.54184
_diffrn_reflns_av_R_equivalents  0.0575
_diffrn_reflns_av_unetI/netI     0.0422
_diffrn_reflns_Laue_measured_fraction_full 1.000
_diffrn_reflns_Laue_measured_fraction_max 0.977
_diffrn_reflns_limit_h_max       11
_diffrn_reflns_limit_h_min       -11
_diffrn_reflns_limit_k_max       11
_diffrn_reflns_limit_k_min       -14
_diffrn_reflns_limit_l_max       19
_diffrn_reflns_limit_l_min       -19
_diffrn_reflns_number            28857
_diffrn_reflns_point_group_measured_fraction_full 1.000
_diffrn_reflns_point_group_measured_fraction_max 0.977
_diffrn_reflns_theta_full        67.684
_diffrn_reflns_theta_max         77.431
_diffrn_reflns_theta_min         4.395
_diffrn_source                   'micro-focus sealed X-ray tube'
_exptl_absorpt_coefficient_mu    2.756
_exptl_absorpt_correction_T_max  1.00000
_exptl_absorpt_correction_T_min  0.83501
_exptl_absorpt_correction_type   multi-scan
_exptl_absorpt_process_details
;
CrysAlisPro 1.171.40.81a (Rigaku Oxford Diffraction, 2020)
Empirical absorption correction using spherical harmonics,
implemented in SCALE3 ABSPACK scaling algorithm.
;
_exptl_crystal_colour            colourless
_exptl_crystal_density_diffrn    1.487
_exptl_crystal_description       plate
_exptl_crystal_F_000             648
_exptl_crystal_size_max          0.20
_exptl_crystal_size_mid          0.10
_exptl_crystal_size_min          0.05
_refine_diff_density_max         0.379
_refine_diff_density_min         -0.421
_refine_diff_density_rms         0.061
_refine_ls_extinction_method     none
_refine_ls_goodness_of_fit_ref   1.050
_refine_ls_hydrogen_treatment    constr
_refine_ls_matrix_type           full
_refine_ls_number_parameters     367
_refine_ls_number_reflns         5837
_refine_ls_number_restraints     0
_refine_ls_restrained_S_all      1.050
_refine_ls_R_factor_all          0.0455
_refine_ls_R_factor_gt           0.0396
_refine_ls_shift/su_max          0.000
_refine_ls_shift/su_mean         0.000
_refine_ls_structure_factor_coef Fsqd
_refine_ls_weighting_details
'w=1/[\s^2^(Fo^2^)+(0.0509P)^2^+0.6301P] where P=(Fo^2^+2Fc^2^)/3'
_refine_ls_weighting_scheme      calc
_refine_ls_wR_factor_gt          0.1015
_refine_ls_wR_factor_ref         0.1059
_reflns_Friedel_coverage         0.000
_reflns_number_gt                5074
_reflns_number_total             5837
_reflns_threshold_expression     'I > 2\s(I)'
_cod_data_source_file            d3sc05186b2.cif
_cod_data_source_block           MX104_20
_cod_depositor_comments
'Adding full bibliography for 1570482--1570484.cif.'
_cod_database_code               1570482
_shelx_shelxl_version_number     2018/3
_shelx_space_group_comment
;
The symmetry employed for this shelxl refinement is uniquely defined
by the following loop, which should always be used as a source of
symmetry information in preference to the above space-group names.
They are only intended as comments.
;
_shelx_res_file
;
TITL MX104_20 in P-1
    C:\X-RAYD~1\MX104_20\MX104_20.res
    created by SHELXL-2018/3 at 10:15:35 on 02-Oct-2020
CELL 1.54184 9.4060 11.1167 15.5637 75.810 72.977 66.135
ZERR 2.0000 0.0002 0.0002 0.0003 0.002 0.002 0.002
LATT 1
SFAC C H AL F N O S
UNIT 46 50 2 12 4 12 4
BOND
ACTA
FMAP 2 1 53
GRID
PLAN 10 0 0
MERG 2
TEMP -150
L.S. 20
WGHT    0.050900    0.630100
FVAR       5.85774
S1    7    0.223603    0.099342    0.371154    11.00000    0.01797    0.02005 =
         0.02204   -0.00038   -0.00527   -0.00863
S2    7    0.211963    0.366605    0.139534    11.00000    0.02339    0.02766 =
         0.02347   -0.00108   -0.01024   -0.00906
AL1   3    0.458895    0.247617    0.263240    11.00000    0.01377    0.01846 =
         0.01863   -0.00404   -0.00336   -0.00544
F1    4    0.408398   -0.102000    0.463485    11.00000    0.03526    0.04972 =
         0.05074    0.01628   -0.01090    0.00352
F2    4    0.159286   -0.060653    0.513753    11.00000    0.04619    0.06225 =
         0.04389    0.02484   -0.01842   -0.03880
F3    4    0.266267    0.062877    0.535750    11.00000    0.08366    0.05644 =
         0.02979    0.00525   -0.02543   -0.03769
F4    4    0.017478    0.480422    0.279086    11.00000    0.05380    0.03932 =
         0.05166   -0.00865    0.02004   -0.00804
F5    4   -0.078777    0.532731    0.160757    11.00000    0.02798    0.06061 =
         0.13151   -0.00425   -0.03733   -0.00202
F6    4    0.086961    0.615351    0.167261    11.00000    0.04238    0.02485 =
         0.06586   -0.00059   -0.00148   -0.00986
O1    6    0.362892    0.144965    0.340788    11.00000    0.02071    0.03102 =
         0.02789    0.00095   -0.00426   -0.01337
O2    6    0.232562    0.012844    0.314922    11.00000    0.05441    0.02705 =
         0.03359   -0.00165   -0.01705   -0.02025
O3    6    0.078858    0.205246    0.396359    11.00000    0.01882    0.03255 =
         0.03222   -0.00102   -0.00231   -0.00371
O4    6    0.337117    0.351756    0.187423    11.00000    0.02219    0.02627 =
         0.02651   -0.00367   -0.01039   -0.00643
O5    6    0.157914    0.258129    0.169673    11.00000    0.04111    0.03399 =
         0.04168   -0.00379   -0.01592   -0.01909
O6    6    0.254783    0.411156    0.045848    11.00000    0.05011    0.05703 =
         0.02296    0.00200   -0.01274   -0.02264
N1    5    0.659669    0.143259    0.210430    11.00000    0.01781    0.01949 =
         0.02038   -0.00460   -0.00292   -0.00618
N2    5    0.503938    0.353454    0.316862    11.00000    0.01565    0.01927 =
         0.02057   -0.00421   -0.00359   -0.00547
C1    1    0.384698    0.482146    0.337207    11.00000    0.01708    0.01991 =
         0.02904   -0.01018   -0.00777   -0.00387
C2    1    0.271539    0.491248    0.419357    11.00000    0.02055    0.03220 =
         0.02956   -0.01437   -0.00553   -0.00852
C3    1    0.156876    0.616935    0.434086    11.00000    0.02200    0.03985 =
         0.03900   -0.02433   -0.00659   -0.00277
AFIX  43
H3    2    0.077119    0.625855    0.488680    11.00000   -1.20000
AFIX   0
C4    1    0.157627    0.727692    0.370954    11.00000    0.03260    0.02934 =
         0.05122   -0.02057   -0.01777    0.00461
AFIX  43
H4    2    0.079468    0.812190    0.382626    11.00000   -1.20000
AFIX   0
C5    1    0.271178    0.716752    0.290837    11.00000    0.03956    0.02158 =
         0.04599   -0.00735   -0.02145   -0.00347
AFIX  43
H5    2    0.271110    0.794203    0.248118    11.00000   -1.20000
AFIX   0
C6    1    0.386473    0.593397    0.271475    11.00000    0.02701    0.02310 =
         0.03191   -0.00664   -0.01170   -0.00765
C7    1    0.273830    0.372680    0.491222    11.00000    0.03053    0.04059 =
         0.02842   -0.01446    0.00482   -0.01488
AFIX 137
H7A   2    0.254513    0.307667    0.467911    11.00000   -1.50000
H7B   2    0.190477    0.400949    0.545049    11.00000   -1.50000
H7C   2    0.377993    0.332083    0.507584    11.00000   -1.50000
AFIX   0
C8    1    0.508409    0.581507    0.183241    11.00000    0.03462    0.02468 =
         0.03467    0.00141   -0.00860   -0.01188
AFIX 137
H8A   2    0.494218    0.670049    0.147904    11.00000   -1.50000
H8B   2    0.494899    0.525614    0.148632    11.00000   -1.50000
H8C   2    0.615547    0.541110    0.195704    11.00000   -1.50000
AFIX   0
C9    1    0.651975    0.321292    0.328984    11.00000    0.01886    0.02344 =
         0.02000   -0.00151   -0.00520   -0.00906
C10   1    0.678605    0.403307    0.381997    11.00000    0.02181    0.03215 =
         0.03400   -0.01177   -0.00928   -0.00768
AFIX 137
H10A  2    0.659043    0.493785    0.349119    11.00000   -1.50000
H10B  2    0.788749    0.363450    0.389815    11.00000   -1.50000
H10C  2    0.605422    0.406277    0.441696    11.00000   -1.50000
AFIX   0
C11   1    0.782845    0.215986    0.293176    11.00000    0.01616    0.02602 =
         0.02368   -0.00321   -0.00640   -0.00648
AFIX  43
H11   2    0.878806    0.195186    0.311728    11.00000   -1.20000
AFIX   0
C12   1    0.789592    0.137517    0.233321    11.00000    0.01646    0.02146 =
         0.02179   -0.00083   -0.00396   -0.00520
C13   1    0.950262    0.045369    0.191410    11.00000    0.01762    0.03310 =
         0.03663   -0.01278   -0.00468   -0.00274
AFIX 137
H13A  2    0.952181   -0.046120    0.206501    11.00000   -1.50000
H13B  2    1.032435    0.051586    0.215084    11.00000   -1.50000
H13C  2    0.970990    0.070523    0.125303    11.00000   -1.50000
AFIX   0
C14   1    0.678142    0.070370    0.139798    11.00000    0.01350    0.02568 =
         0.02410   -0.00928   -0.00097   -0.00451
C15   1    0.679516   -0.060126    0.162623    11.00000    0.02007    0.02581 =
         0.03957   -0.01226   -0.00166   -0.00649
C16   1    0.693313   -0.123619    0.091489    11.00000    0.02836    0.03326 =
         0.06031   -0.02520   -0.00447   -0.00847
AFIX  43
H16   2    0.695258   -0.212284    0.104590    11.00000   -1.20000
AFIX   0
C17   1    0.704040   -0.061094    0.003726    11.00000    0.03211    0.05430 =
         0.05041   -0.03495   -0.00863   -0.00525
AFIX  43
H17   2    0.711916   -0.106029   -0.043078    11.00000   -1.20000
AFIX   0
C18   1    0.703456    0.067347   -0.017087    11.00000    0.02981    0.05168 =
         0.02727   -0.01645   -0.00500   -0.00505
AFIX  43
H18   2    0.711699    0.109721   -0.078327    11.00000   -1.20000
AFIX   0
C19   1    0.690932    0.135520    0.050578    11.00000    0.01905    0.03594 =
         0.02331   -0.00907   -0.00193   -0.00511
C20   1    0.672301   -0.132819    0.257834    11.00000    0.04022    0.02182 =
         0.04536   -0.00553    0.00007   -0.00910
AFIX 137
H20A  2    0.660708   -0.073508    0.298802    11.00000   -1.50000
H20B  2    0.770590   -0.210530    0.260179    11.00000   -1.50000
H20C  2    0.580892   -0.161890    0.276700    11.00000   -1.50000
AFIX   0
C21   1    0.696544    0.273269    0.026103    11.00000    0.03456    0.03765 =
         0.02526    0.00118    0.00047   -0.01193
AFIX 137
H21A  2    0.722815    0.295632   -0.040130    11.00000   -1.50000
H21B  2    0.778011    0.276809    0.051808    11.00000   -1.50000
H21C  2    0.592465    0.337153    0.050678    11.00000   -1.50000
AFIX   0
C22   1    0.267861   -0.006099    0.477672    11.00000    0.02334    0.03235 =
         0.02847    0.00515   -0.00855   -0.01322
C23   1    0.049917    0.507576    0.189221    11.00000    0.02362    0.02939 =
         0.05133    0.00293   -0.00828   -0.00669
HKLF 4




REM  MX104_20 in P-1
REM wR2 = 0.1059, GooF = S = 1.050, Restrained GooF = 1.050 for all data
REM R1 = 0.0396 for 5074 Fo > 4sig(Fo) and 0.0455 for all 5837 data
REM 367 parameters refined using 0 restraints

END

WGHT      0.0509      0.6301

REM Highest difference peak  0.379,  deepest hole -0.421,  1-sigma level  0.061
Q1    1  -0.0332  0.4811  0.2426  11.00000  0.05    0.38
Q2    1  -0.0274  0.5077  0.0992  11.00000  0.05    0.28
Q3    1   0.0841  0.5972  0.1189  11.00000  0.05    0.28
Q4    1   0.2587  0.0355  0.4236  11.00000  0.05    0.26
Q5    1  -0.0583  0.4843  0.1184  11.00000  0.05    0.26
Q6    1   0.4418  0.4189  0.3267  11.00000  0.05    0.25
Q7    1   0.2670  0.4426  0.4413  11.00000  0.05    0.24
Q8    1   0.4936  0.2992  0.3043  11.00000  0.05    0.24
Q9    1   0.6679 -0.2258  0.2623  11.00000  0.05    0.24
Q10   1   0.1406  0.0055  0.5372  11.00000  0.05    0.24
;
_shelx_res_checksum              22481
loop_
_space_group_symop_operation_xyz
'x, y, z'
'-x, -y, -z'
loop_
_atom_site_label
_atom_site_type_symbol
_atom_site_fract_x
_atom_site_fract_y
_atom_site_fract_z
_atom_site_U_iso_or_equiv
_atom_site_adp_type
_atom_site_occupancy
_atom_site_site_symmetry_order
_atom_site_calc_flag
_atom_site_refinement_flags_posn
_atom_site_refinement_flags_adp
_atom_site_refinement_flags_occupancy
_atom_site_disorder_assembly
_atom_site_disorder_group
S1 S 0.22360(5) 0.09934(4) 0.37115(3) 0.01972(11) Uani 1 1 d . . . . .
S2 S 0.21196(5) 0.36661(4) 0.13953(3) 0.02419(12) Uani 1 1 d . . . . .
Al1 Al 0.45889(5) 0.24762(5) 0.26324(3) 0.01685(12) Uani 1 1 d . . . . .
F1 F 0.40840(17) -0.10200(15) 0.46349(11) 0.0557(4) Uani 1 1 d . . . . .
F2 F 0.15929(17) -0.06065(15) 0.51375(10) 0.0485(4) Uani 1 1 d . . . . .
F3 F 0.2663(2) 0.06288(15) 0.53575(9) 0.0516(4) Uani 1 1 d . . . . .
F4 F 0.01748(19) 0.48042(14) 0.27909(11) 0.0581(4) Uani 1 1 d . . . . .
F5 F -0.07878(18) 0.53273(17) 0.16076(16) 0.0752(6) Uani 1 1 d . . . . .
F6 F 0.08696(17) 0.61535(12) 0.16726(11) 0.0486(4) Uani 1 1 d . . . . .
O1 O 0.36289(15) 0.14496(13) 0.34079(9) 0.0264(3) Uani 1 1 d . . . . .
O2 O 0.2326(2) 0.01284(13) 0.31492(10) 0.0353(3) Uani 1 1 d . . . . .
O3 O 0.07886(15) 0.20525(14) 0.39636(10) 0.0312(3) Uani 1 1 d . . . . .
O4 O 0.33712(15) 0.35176(12) 0.18742(9) 0.0246(3) Uani 1 1 d . . . . .
O5 O 0.15791(18) 0.25813(14) 0.16967(11) 0.0358(3) Uani 1 1 d . . . . .
O6 O 0.2548(2) 0.41116(17) 0.04585(10) 0.0426(4) Uani 1 1 d . . . . .
N1 N 0.65967(17) 0.14326(14) 0.21043(10) 0.0194(3) Uani 1 1 d . . . . .
N2 N 0.50394(16) 0.35345(14) 0.31686(10) 0.0186(3) Uani 1 1 d . . . . .
C1 C 0.3847(2) 0.48215(16) 0.33721(13) 0.0210(3) Uani 1 1 d . . . . .
C2 C 0.2715(2) 0.49125(19) 0.41936(13) 0.0259(4) Uani 1 1 d . . . . .
C3 C 0.1569(2) 0.6169(2) 0.43409(15) 0.0329(5) Uani 1 1 d . . . . .
H3 H 0.077119 0.625855 0.488680 0.039 Uiso 1 1 calc R U . . .
C4 C 0.1576(3) 0.7277(2) 0.37095(17) 0.0382(5) Uani 1 1 d . . . . .
H4 H 0.079468 0.812190 0.382626 0.046 Uiso 1 1 calc R U . . .
C5 C 0.2712(3) 0.71675(19) 0.29084(16) 0.0349(5) Uani 1 1 d . . . . .
H5 H 0.271110 0.794203 0.248118 0.042 Uiso 1 1 calc R U . . .
C6 C 0.3865(2) 0.59340(18) 0.27147(14) 0.0261(4) Uani 1 1 d . . . . .
C7 C 0.2738(2) 0.3727(2) 0.49122(14) 0.0333(4) Uani 1 1 d . . . . .
H7A H 0.254513 0.307667 0.467911 0.050 Uiso 1 1 calc R U . . .
H7B H 0.190477 0.400949 0.545049 0.050 Uiso 1 1 calc R U . . .
H7C H 0.377993 0.332083 0.507584 0.050 Uiso 1 1 calc R U . . .
C8 C 0.5084(3) 0.58151(19) 0.18324(15) 0.0318(4) Uani 1 1 d . . . . .
H8A H 0.494218 0.670049 0.147904 0.048 Uiso 1 1 calc R U . . .
H8B H 0.494899 0.525614 0.148632 0.048 Uiso 1 1 calc R U . . .
H8C H 0.615547 0.541110 0.195704 0.048 Uiso 1 1 calc R U . . .
C9 C 0.6520(2) 0.32129(17) 0.32898(12) 0.0204(3) Uani 1 1 d . . . . .
C10 C 0.6786(2) 0.40331(19) 0.38200(14) 0.0279(4) Uani 1 1 d . . . . .
H10A H 0.659043 0.493785 0.349119 0.042 Uiso 1 1 calc R U . . .
H10B H 0.788749 0.363450 0.389815 0.042 Uiso 1 1 calc R U . . .
H10C H 0.605422 0.406277 0.441696 0.042 Uiso 1 1 calc R U . . .
C11 C 0.7828(2) 0.21599(17) 0.29318(12) 0.0219(3) Uani 1 1 d . . . . .
H11 H 0.878806 0.195186 0.311728 0.026 Uiso 1 1 calc R U . . .
C12 C 0.7896(2) 0.13752(17) 0.23332(12) 0.0209(3) Uani 1 1 d . . . . .
C13 C 0.9503(2) 0.0454(2) 0.19141(15) 0.0301(4) Uani 1 1 d . . . . .
H13A H 0.952181 -0.046120 0.206501 0.045 Uiso 1 1 calc R U . . .
H13B H 1.032435 0.051586 0.215084 0.045 Uiso 1 1 calc R U . . .
H13C H 0.970990 0.070523 0.125303 0.045 Uiso 1 1 calc R U . . .
C14 C 0.67814(19) 0.07037(17) 0.13980(12) 0.0216(3) Uani 1 1 d . . . . .
C15 C 0.6795(2) -0.06013(19) 0.16262(15) 0.0287(4) Uani 1 1 d . . . . .
C16 C 0.6933(2) -0.1236(2) 0.09149(18) 0.0392(5) Uani 1 1 d . . . . .
H16 H 0.695258 -0.212284 0.104590 0.047 Uiso 1 1 calc R U . . .
C17 C 0.7040(3) -0.0611(3) 0.00373(18) 0.0439(6) Uani 1 1 d . . . . .
H17 H 0.711916 -0.106029 -0.043078 0.053 Uiso 1 1 calc R U . . .
C18 C 0.7035(3) 0.0673(2) -0.01709(15) 0.0377(5) Uani 1 1 d . . . . .
H18 H 0.711699 0.109721 -0.078327 0.045 Uiso 1 1 calc R U . . .
C19 C 0.6909(2) 0.1355(2) 0.05058(13) 0.0274(4) Uani 1 1 d . . . . .
C20 C 0.6723(3) -0.1328(2) 0.25783(16) 0.0385(5) Uani 1 1 d . . . . .
H20A H 0.660708 -0.073508 0.298802 0.058 Uiso 1 1 calc R U . . .
H20B H 0.770590 -0.210530 0.260179 0.058 Uiso 1 1 calc R U . . .
H20C H 0.580892 -0.161890 0.276700 0.058 Uiso 1 1 calc R U . . .
C21 C 0.6965(3) 0.2733(2) 0.02610(14) 0.0355(5) Uani 1 1 d . . . . .
H21A H 0.722815 0.295632 -0.040130 0.053 Uiso 1 1 calc R U . . .
H21B H 0.778011 0.276809 0.051808 0.053 Uiso 1 1 calc R U . . .
H21C H 0.592465 0.337153 0.050678 0.053 Uiso 1 1 calc R U . . .
C22 C 0.2679(2) -0.00610(19) 0.47767(14) 0.0281(4) Uani 1 1 d . . . . .
C23 C 0.0499(2) 0.5076(2) 0.18922(17) 0.0374(5) Uani 1 1 d . . . . .
loop_
_atom_site_aniso_label
_atom_site_aniso_U_11
_atom_site_aniso_U_22
_atom_site_aniso_U_33
_atom_site_aniso_U_23
_atom_site_aniso_U_13
_atom_site_aniso_U_12
S1 0.0180(2) 0.0201(2) 0.0220(2) -0.00038(16) -0.00527(16) -0.00863(16)
S2 0.0234(2) 0.0277(2) 0.0235(2) -0.00108(17) -0.01024(17) -0.00906(17)
Al1 0.0138(2) 0.0185(2) 0.0186(3) -0.00404(19) -0.00336(18) -0.00544(18)
F1 0.0353(7) 0.0497(8) 0.0507(9) 0.0163(7) -0.0109(6) 0.0035(6)
F2 0.0462(7) 0.0622(8) 0.0439(8) 0.0248(7) -0.0184(6) -0.0388(7)
F3 0.0837(11) 0.0564(8) 0.0298(7) 0.0052(6) -0.0254(7) -0.0377(8)
F4 0.0538(9) 0.0393(7) 0.0517(9) -0.0086(7) 0.0200(7) -0.0080(6)
F5 0.0280(7) 0.0606(10) 0.1315(18) -0.0042(10) -0.0373(9) -0.0020(7)
F6 0.0424(7) 0.0248(6) 0.0659(10) -0.0006(6) -0.0015(7) -0.0099(5)
O1 0.0207(6) 0.0310(7) 0.0279(7) 0.0009(5) -0.0043(5) -0.0134(5)
O2 0.0544(9) 0.0270(7) 0.0336(8) -0.0016(6) -0.0170(7) -0.0203(7)
O3 0.0188(6) 0.0326(7) 0.0322(8) -0.0010(6) -0.0023(5) -0.0037(5)
O4 0.0222(6) 0.0263(6) 0.0265(7) -0.0037(5) -0.0104(5) -0.0064(5)
O5 0.0411(8) 0.0340(7) 0.0417(9) -0.0038(6) -0.0159(7) -0.0191(6)
O6 0.0501(9) 0.0570(10) 0.0230(8) 0.0020(7) -0.0127(7) -0.0226(8)
N1 0.0178(7) 0.0195(7) 0.0204(7) -0.0046(6) -0.0029(6) -0.0062(5)
N2 0.0157(6) 0.0193(7) 0.0206(7) -0.0042(5) -0.0036(5) -0.0055(5)
C1 0.0171(8) 0.0199(8) 0.0290(9) -0.0102(7) -0.0078(7) -0.0039(6)
C2 0.0206(8) 0.0322(9) 0.0296(10) -0.0144(8) -0.0055(7) -0.0085(7)
C3 0.0220(9) 0.0398(11) 0.0390(12) -0.0243(9) -0.0066(8) -0.0028(8)
C4 0.0326(11) 0.0293(10) 0.0512(14) -0.0206(10) -0.0178(10) 0.0046(8)
C5 0.0396(11) 0.0216(9) 0.0460(13) -0.0073(9) -0.0215(10) -0.0035(8)
C6 0.0270(9) 0.0231(9) 0.0319(10) -0.0066(7) -0.0117(8) -0.0077(7)
C7 0.0305(10) 0.0406(11) 0.0284(10) -0.0145(9) 0.0048(8) -0.0149(9)
C8 0.0346(10) 0.0247(9) 0.0347(11) 0.0014(8) -0.0086(9) -0.0119(8)
C9 0.0189(8) 0.0234(8) 0.0200(8) -0.0015(7) -0.0052(6) -0.0091(6)
C10 0.0218(8) 0.0322(9) 0.0340(10) -0.0118(8) -0.0093(8) -0.0077(7)
C11 0.0162(8) 0.0260(8) 0.0237(9) -0.0032(7) -0.0064(7) -0.0065(7)
C12 0.0165(8) 0.0215(8) 0.0218(9) -0.0008(7) -0.0040(7) -0.0052(6)
C13 0.0176(8) 0.0331(10) 0.0366(11) -0.0128(8) -0.0047(8) -0.0027(7)
C14 0.0135(7) 0.0257(8) 0.0241(9) -0.0093(7) -0.0010(6) -0.0045(6)
C15 0.0201(8) 0.0258(9) 0.0396(11) -0.0123(8) -0.0017(8) -0.0065(7)
C16 0.0284(10) 0.0333(11) 0.0603(15) -0.0252(10) -0.0045(10) -0.0085(8)
C17 0.0321(11) 0.0543(14) 0.0504(14) -0.0350(12) -0.0086(10) -0.0053(10)
C18 0.0298(10) 0.0517(13) 0.0273(11) -0.0164(10) -0.0050(8) -0.0051(9)
C19 0.0191(8) 0.0359(10) 0.0233(9) -0.0091(8) -0.0019(7) -0.0051(7)
C20 0.0402(12) 0.0218(9) 0.0454(13) -0.0055(9) 0.0001(10) -0.0091(8)
C21 0.0346(11) 0.0377(11) 0.0253(10) 0.0012(8) 0.0005(8) -0.0119(9)
C22 0.0233(9) 0.0323(10) 0.0285(10) 0.0052(8) -0.0086(8) -0.0132(8)
C23 0.0236(9) 0.0294(10) 0.0513(14) 0.0029(9) -0.0083(9) -0.0067(8)
loop_
_atom_type_symbol
_atom_type_description
_atom_type_scat_dispersion_real
_atom_type_scat_dispersion_imag
_atom_type_scat_source
C C 0.0181 0.0091 'International Tables Vol C Tables 4.2.6.8 and 6.1.1.4'
H H 0.0000 0.0000 'International Tables Vol C Tables 4.2.6.8 and 6.1.1.4'
Al Al 0.2130 0.2455 'International Tables Vol C Tables 4.2.6.8 and 6.1.1.4'
F F 0.0727 0.0534 'International Tables Vol C Tables 4.2.6.8 and 6.1.1.4'
N N 0.0311 0.0180 'International Tables Vol C Tables 4.2.6.8 and 6.1.1.4'
O O 0.0492 0.0322 'International Tables Vol C Tables 4.2.6.8 and 6.1.1.4'
S S 0.3331 0.5567 'International Tables Vol C Tables 4.2.6.8 and 6.1.1.4'
loop_
_geom_angle_atom_site_label_1
_geom_angle_atom_site_label_2
_geom_angle_atom_site_label_3
_geom_angle
_geom_angle_site_symmetry_1
_geom_angle_site_symmetry_3
_geom_angle_publ_flag
O2 S1 O3 120.13(9) . . ?
O2 S1 O1 112.15(9) . . ?
O3 S1 O1 111.38(8) . . ?
O2 S1 C22 105.58(9) . . ?
O3 S1 C22 105.64(9) . . ?
O1 S1 C22 99.38(8) . . ?
O6 S2 O5 120.72(10) . . ?
O6 S2 O4 110.67(9) . . ?
O5 S2 O4 111.40(8) . . ?
O6 S2 C23 106.62(10) . . ?
O5 S2 C23 105.73(10) . . ?
O4 S2 C23 99.18(9) . . ?
O4 Al1 O1 109.35(6) . . ?
O4 Al1 N2 107.80(6) . . ?
O1 Al1 N2 113.80(7) . . ?
O4 Al1 N1 115.46(7) . . ?
O1 Al1 N1 108.97(7) . . ?
N2 Al1 N1 101.42(7) . . ?
S1 O1 Al1 148.50(9) . . ?
S2 O4 Al1 145.78(9) . . ?
C12 N1 C14 119.54(14) . . ?
C12 N1 Al1 121.28(12) . . ?
C14 N1 Al1 119.12(11) . . ?
C9 N2 C1 118.58(14) . . ?
C9 N2 Al1 121.02(12) . . ?
C1 N2 Al1 119.99(11) . . ?
C2 C1 C6 122.23(16) . . ?
C2 C1 N2 120.02(16) . . ?
C6 C1 N2 117.74(16) . . ?
C1 C2 C3 117.51(19) . . ?
C1 C2 C7 122.08(16) . . ?
C3 C2 C7 120.38(18) . . ?
C4 C3 C2 121.2(2) . . ?
C3 C4 C5 120.35(18) . . ?
C4 C5 C6 121.0(2) . . ?
C5 C6 C1 117.68(19) . . ?
C5 C6 C8 120.85(18) . . ?
C1 C6 C8 121.47(16) . . ?
N2 C9 C11 122.99(16) . . ?
N2 C9 C10 118.83(15) . . ?
C11 C9 C10 118.17(15) . . ?
C9 C11 C12 127.77(16) . . ?
N1 C12 C11 122.91(15) . . ?
N1 C12 C13 119.03(16) . . ?
C11 C12 C13 118.04(16) . . ?
C19 C14 C15 122.29(17) . . ?
C19 C14 N1 117.76(16) . . ?
C15 C14 N1 119.93(17) . . ?
C16 C15 C14 117.1(2) . . ?
C16 C15 C20 120.28(19) . . ?
C14 C15 C20 122.64(18) . . ?
C17 C16 C15 121.6(2) . . ?
C16 C17 C18 120.2(2) . . ?
C17 C18 C19 120.9(2) . . ?
C18 C19 C14 117.93(19) . . ?
C18 C19 C21 120.07(19) . . ?
C14 C19 C21 121.97(17) . . ?
F2 C22 F3 108.82(18) . . ?
F2 C22 F1 108.25(17) . . ?
F3 C22 F1 108.42(17) . . ?
F2 C22 S1 108.52(13) . . ?
F3 C22 S1 111.56(13) . . ?
F1 C22 S1 111.19(14) . . ?
F5 C23 F6 108.90(18) . . ?
F5 C23 F4 108.4(2) . . ?
F6 C23 F4 107.5(2) . . ?
F5 C23 S2 109.66(18) . . ?
F6 C23 S2 111.67(15) . . ?
F4 C23 S2 110.59(14) . . ?
loop_
_geom_bond_atom_site_label_1
_geom_bond_atom_site_label_2
_geom_bond_distance
_geom_bond_site_symmetry_2
_geom_bond_publ_flag
S1 O2 1.4147(14) . ?
S1 O3 1.4178(14) . ?
S1 O1 1.5016(13) . ?
S1 C22 1.831(2) . ?
S2 O6 1.4132(16) . ?
S2 O5 1.4184(15) . ?
S2 O4 1.5049(13) . ?
S2 C23 1.830(2) . ?
Al1 O4 1.7588(13) . ?
Al1 O1 1.7592(13) . ?
Al1 N2 1.8309(15) . ?
Al1 N1 1.8368(15) . ?
F1 C22 1.318(2) . ?
F2 C22 1.313(2) . ?
F3 C22 1.314(2) . ?
F4 C23 1.326(3) . ?
F5 C23 1.311(3) . ?
F6 C23 1.319(3) . ?
N1 C12 1.344(2) . ?
N1 C14 1.451(2) . ?
N2 C9 1.349(2) . ?
N2 C1 1.456(2) . ?
C1 C2 1.399(3) . ?
C1 C6 1.401(3) . ?
C2 C3 1.400(3) . ?
C2 C7 1.502(3) . ?
C3 C4 1.375(3) . ?
C4 C5 1.378(3) . ?
C5 C6 1.398(3) . ?
C6 C8 1.504(3) . ?
C9 C11 1.396(2) . ?
C9 C10 1.500(2) . ?
C11 C12 1.397(3) . ?
C12 C13 1.502(2) . ?
C14 C19 1.395(3) . ?
C14 C15 1.402(3) . ?
C15 C16 1.402(3) . ?
C15 C20 1.501(3) . ?
C16 C17 1.367(4) . ?
C17 C18 1.383(4) . ?
C18 C19 1.394(3) . ?
C19 C21 1.503(3) . ?
