#------------------------------------------------------------------------------
#$Date: 2024-02-05 14:09:55 +0200 (Mon, 05 Feb 2024) $
#$Revision: 289697 $
#$URL: file:///home/coder/svn-repositories/cod/cif/1/57/04/1570433.cif $
#------------------------------------------------------------------------------
#
# This file is available in the Crystallography Open Database (COD),
# http://www.crystallography.net/
#
# All data on this site have been placed in the public domain by the
# contributors.
#
data_1570433
loop_
_publ_author_name
'Sacharczuk, Natalia'
'Olejniczak, Anna'
'Bujak, Maciej'
'Dziubek, Kamil Filip'
'Katrusiak, Andrzej'
'Podsiad&#x142;o, Marcin'
_publ_section_title
;
 Conformation-aggregation interplay in the simplest aliphatic ethers
 probed under high pressure.
;
_journal_issue                   'Pt 1'
_journal_name_full               IUCrJ
_journal_page_first              57
_journal_page_last               61
_journal_paper_doi               10.1107/S2052252523009995
_journal_volume                  11
_journal_year                    2024
_chemical_formula_moiety         'C2 H6 O'
_chemical_formula_sum            'C2 H6 O'
_chemical_formula_weight         46.07
_chemical_name_systematic
;
dimethyl ether
;
_space_group_crystal_system      monoclinic
_space_group_IT_number           14
_space_group_name_Hall           '-P 2ybc'
_space_group_name_H-M_alt        'P 1 21/c 1'
_atom_sites_solution_hydrogens   geom
_atom_sites_solution_primary     dual
_audit_creation_method
; Olex2 1.5
(compiled 2022.04.07 svn.rca3783a0 for OlexSys, GUI svn.r6498)
;
_cell_angle_alpha                90
_cell_angle_beta                 103.835(19)
_cell_angle_gamma                90
_cell_formula_units_Z            4
_cell_length_a                   5.5541(4)
_cell_length_b                   6.6179(11)
_cell_length_c                   6.964(3)
_cell_measurement_reflns_used    653
_cell_measurement_temperature    295(2)
_cell_measurement_theta_max      25.9040
_cell_measurement_theta_min      5.2200
_cell_volume                     248.55(12)
_computing_cell_refinement       'CrysAlisPro 1.171.42.49 (Rigaku OD, 2022)'
_computing_data_collection       'CrysAlisPro 1.171.42.49 (Rigaku OD, 2022)'
_computing_data_reduction        'CrysAlisPro 1.171.42.49 (Rigaku OD, 2022)'
_computing_molecular_graphics    'Olex2 1.5 (Dolomanov et al., 2009)'
_computing_publication_material  'Olex2 1.5 (Dolomanov et al., 2009)'
_computing_structure_refinement  'SHELXL 2018/3 (Sheldrick, 2015)'
_computing_structure_solution    'SHELXT 2018/2 (Sheldrick, 2018)'
_diffrn_ambient_environment      'diamond-anvil cell'
_diffrn_ambient_pressure         3300000
_diffrn_ambient_temperature      295(2)
_diffrn_measured_fraction_theta_full 0.313
_diffrn_measured_fraction_theta_max 0.302
_diffrn_measurement_device_type  'KUMA KM4-CCD, Eos'
_diffrn_measurement_method       '\f- and \w-scans'
_diffrn_radiation_type           MoK\a
_diffrn_radiation_wavelength     0.71073
_diffrn_reflns_av_R_equivalents  0.0646
_diffrn_reflns_av_unetI/netI     0.0374
_diffrn_reflns_Laue_measured_fraction_full 0.313
_diffrn_reflns_Laue_measured_fraction_max 0.302
_diffrn_reflns_limit_h_max       6
_diffrn_reflns_limit_h_min       -6
_diffrn_reflns_limit_k_max       7
_diffrn_reflns_limit_k_min       -7
_diffrn_reflns_limit_l_max       4
_diffrn_reflns_limit_l_min       -4
_diffrn_reflns_number            850
_diffrn_reflns_point_group_measured_fraction_full 0.313
_diffrn_reflns_point_group_measured_fraction_max 0.302
_diffrn_reflns_theta_full        25.242
_diffrn_reflns_theta_max         25.912
_diffrn_reflns_theta_min         5.237
_exptl_absorpt_coefficient_mu    0.095
_exptl_absorpt_correction_T_max  1.00000
_exptl_absorpt_correction_T_min  0.00792
_exptl_absorpt_correction_type   multi-scan
_exptl_absorpt_process_details
;
CrysAlisPro 1.171.42.49 (Rigaku Oxford Diffraction, 2022)
Empirical absorption correction using spherical harmonics,
implemented in SCALE3 ABSPACK scaling algorithm.
;
_exptl_crystal_colour            colourless
_exptl_crystal_density_diffrn    1.231
_exptl_crystal_description       disc
_exptl_crystal_F_000             104
_exptl_crystal_size_max          0.30
_exptl_crystal_size_mid          0.29
_exptl_crystal_size_min          0.25
_refine_diff_density_max         0.187
_refine_diff_density_min         -0.167
_refine_diff_density_rms         0.042
_refine_ls_extinction_coef       1.1(7)
_refine_ls_extinction_expression Fc^*^=kFc[1+0.001xFc^2^\l^3^/sin(2\q)]^-1/4^
_refine_ls_extinction_method     'SHELXL-2018/3 (Sheldrick 2018)'
_refine_ls_goodness_of_fit_ref   1.204
_refine_ls_hydrogen_treatment    constr
_refine_ls_matrix_type           full
_refine_ls_number_parameters     31
_refine_ls_number_reflns         147
_refine_ls_number_restraints     0
_refine_ls_restrained_S_all      1.204
_refine_ls_R_factor_all          0.0776
_refine_ls_R_factor_gt           0.0708
_refine_ls_shift/su_max          0.000
_refine_ls_shift/su_mean         0.000
_refine_ls_structure_factor_coef Fsqd
_refine_ls_weighting_details
'w=1/[\s^2^(Fo^2^)+(0.1102P)^2^+0.2366P] where P=(Fo^2^+2Fc^2^)/3'
_refine_ls_weighting_scheme      calc
_refine_ls_wR_factor_gt          0.1861
_refine_ls_wR_factor_ref         0.1927
_reflns_Friedel_coverage         0.000
_reflns_number_gt                132
_reflns_number_total             147
_reflns_threshold_expression     'I > 2\s(I)'
_cod_data_source_file            lq5055.cif
_cod_data_source_block           dimethyl_ether_phase_beta_3_30GPa
_cod_depositor_comments
'Adding full bibliography for 1570433--1570452.cif.'
_cod_original_cell_volume        248.56(12)
_cod_database_code               1570433
_shelx_shelxl_version_number     2018/3
_shelx_space_group_comment
;
The symmetry employed for this shelxl refinement is uniquely defined
by the following loop, which should always be used as a source of
symmetry information in preference to the above space-group names.
They are only intended as comments.
;
_exptl_absorpt_special_details
;
Data were collected at room temperature (295(2) K) and pressure of 3.30(2) GPa
(3300000 kPa).
;
_olex2_refinement_description
;
1. Fixed Uiso
 At 1.5 times of:
  All C(H,H,H) groups
2.a Idealised Me refined as rotating group:
 C1(H11,H12,H13), C2(H22,H23,H21)
;
_shelx_res_file
;
TITL 2edm_a.res in P2(1)/c
    2edm.res
    created by SHELXL-2018/3 at 11:23:43 on 02-Jan-2023
REM Old TITL 2edm in P2(1)/c
REM SHELXT solution in P2(1)/c: R1 0.270, Rweak 0.044, Alpha 0.103
REM <I/s> 0.092 for 8 systematic absences, Orientation as input
REM Formula found by SHELXT: C2 O
CELL 0.71073 5.5541 6.6179 6.9643 90 103.835 90
ZERR 4 0.0004 0.0011 0.0031 0 0.019 0
LATT 1
SYMM -X,0.5+Y,0.5-Z
SFAC C H O
UNIT 8 24 4

L.S. 50
PLAN  10
CONF
BOND
list 4
MORE -1
BOND $H
fmap 2 53
acta
REM <olex2.extras>
REM <HklSrc "%.\\2edm.hkl">
REM </olex2.extras>

WGHT    0.110200    0.236600
EXTI    1.070017
FVAR       5.66059
O1    3    0.727768    0.335622    0.185549    11.00000    0.03453    0.03454 =
         0.05653   -0.00031    0.00327   -0.00022
C1    1    0.909272    0.181808    0.232470    11.00000    0.03903    0.03073 =
         0.07110    0.00412    0.01121    0.00627
AFIX 137
H11   2    0.917067    0.110106    0.114280    11.00000   -1.50000
H12   2    0.866040    0.089681    0.325303    11.00000   -1.50000
H13   2    1.067867    0.241268    0.289666    11.00000   -1.50000
AFIX   0
C2    1    0.494141    0.253634    0.085838    11.00000    0.04071    0.02993 =
         0.07533   -0.00102    0.00321    0.00159
AFIX 137
H22   2    0.506093    0.198930   -0.039215    11.00000   -1.50000
H23   2    0.370885    0.358270    0.064545    11.00000   -1.50000
H21   2    0.448008    0.148453    0.164991    11.00000   -1.50000
AFIX   0
HKLF 4




REM  2edm_a.res in P2(1)/c
REM wR2 = 0.1927, GooF = S = 1.204, Restrained GooF = 1.204 for all data
REM R1 = 0.0708 for 132 Fo > 4sig(Fo) and 0.0776 for all 147 data
REM 31 parameters refined using 0 restraints

END

WGHT      0.1103      0.2358

REM Highest difference peak  0.187,  deepest hole -0.167,  1-sigma level  0.042
Q1    1   0.4488  0.2411 -0.1573  11.00000  0.05    0.19
Q2    1   0.4411  0.1645  0.2063  11.00000  0.05    0.16
Q3    1   0.7132 -0.0388  0.2773  11.00000  0.05    0.15
Q4    1   0.7950 -0.0389  0.1245  11.00000  0.05    0.12
Q5    1   0.7503  0.4162  0.0642  11.00000  0.05    0.11
Q6    1   0.9263  0.2655  0.3628  11.00000  0.05    0.11
Q7    1   1.1041  0.2808  0.3009  11.00000  0.05    0.11
Q8    1   0.8934  0.1816 -0.0554  11.00000  0.05    0.10
Q9    1   1.1987  0.1765  0.3972  11.00000  0.05    0.10
Q10   1   0.4080  0.0854  0.0727  11.00000  0.05    0.10
;
_shelx_res_checksum              76231
_shelx_hkl_file
;
   0  -2  -1  367.93   23.13
   0  -2  -1  419.96   23.67
   0  -2  -1  412.53   20.00
   0   2   1  443.29   25.50
   0   2   1  430.16   21.54
   0   2   1  431.91   25.14
   0   2   1  445.10   25.56
   0   2   2 1903.94   61.77
   0   2   2 2106.18   70.38
   0  -2  -2 1779.19   62.11
   0   2   2 1909.59   53.28
   0  -2  -2 1870.56   52.99
   0   2   2 2138.98   73.46
   0   3   1  890.13   49.37
   0   3   1  838.17   46.06
   0  -3  -1  949.93   51.47
   0   3   1  874.42   46.27
   0   3   1  928.17   39.70
   0  -3  -1  781.88   42.56
   0  -3  -2  878.13   43.12
   0   3   2  917.34   45.85
   0   3   2  999.84   50.52
   0  -3  -2  955.51   48.88
   0   3   2  975.40   49.06
   0   3   2  959.19   39.86
   0  -3  -2  908.30   37.60
   0  -3  -2  952.98   41.46
   0   3   2 1025.00   42.22
   0   3   3 1816.17   80.27
   0  -3  -3 2151.61   98.53
   0   3   3 1074.98   86.64
   0  -3  -3 2489.83   92.98
   0   3   3 1758.81   95.44
   0   3   3 1589.08  104.08
   0   4   2 1323.61   65.85
   0   4   2 1389.40   67.54
   0  -4  -2 1362.02   57.87
   0   4   2 1246.03   62.05
   0  -4  -2 1198.90   59.57
   0   4   2 1108.45   64.50
   0  -4  -2 1398.39   68.48
   0  -4  -3  325.15   34.80
   0   4   3  357.12   36.82
   0   4   3  314.87   36.79
   0   4   3  404.30   40.25
   0  -4  -3  288.38   30.72
   0   5   2  119.23   25.50
   0   5   2  117.92   29.88
   0   5   2  104.04   23.68
   0  -5  -2  209.90   33.90
   0  -5  -2  171.17   28.04
   0  -5  -3   75.71   17.78
   0   5   3   77.69   18.64
   0   5   3   98.02   22.65
   0  -5  -3   73.29   18.18
   0  -5  -3   95.20   22.46
   0   5   3   86.45   20.87
   0   5   4 1009.85  108.87
   0  -5  -4 3473.96  167.71
   0   5   4 1470.93  114.05
   0  -5  -4 2693.69  143.28
   0  -5  -4 3407.04  170.66
   0   5   4 1184.06  113.09
   0  -6  -3  199.92   38.65
   0   6   3  113.14   29.69
   0   6   3  134.26   35.47
   0  -6  -3  191.08   38.39
   0   6   3  141.04   33.65
   0  -6  -3  147.42   29.70
   0   6   4  422.13   73.47
   0  -6  -4  362.07   55.24
   0  -6  -4  529.98   73.39
   0   6   4  501.80   77.27
   0  -6  -4  392.26   56.95
   0   6   4  425.67   63.87
   0  -7  -4 1093.39  126.59
   0   7   4  597.25  130.86
   0   7   4  451.87   94.53
   0   7   4  403.89  119.01
   0  -7  -4 1229.93  130.45
   1  -1  -1 1742.07   46.20
  -1   1   1 1598.85   40.26
   1  -1  -1 1565.08   40.25
  -1   1   1 1776.39   46.37
  -1  -1  -1  425.57   23.39
  -1  -1  -1  417.52   21.55
   1   1   1  448.61   22.92
   1   1   1  448.96   25.54
   1   1   1  456.25   25.03
  -1  -1  -1  443.11   22.65
   1   1   1  447.75   22.55
  -1   2   2 9311.65  135.13
   1  -2  -2 9442.62  139.45
  -1   2   2 9558.24  140.72
  -1   2   2 9612.58  108.40
   1  -2  -2 9344.41  139.25
  -1   2   2 9563.96  148.07
  -1   2   2 8969.61  170.61
   1  -2  -1 1257.61   36.03
  -1   2   1 1374.50   45.91
  -1   2   1 1578.44   51.83
   1  -2  -1 1355.86   39.78
  -1   2   1 1456.57   39.53
  -1   2   1 1399.61   41.00
   1  -2  -1 1304.43   45.12
  -1   2   1 1403.50   47.54
   1   2   1 7693.05   95.26
  -1  -2  -1 7541.12   93.68
   1   2   1 7668.19  100.56
   1   2   1 7672.26  102.38
   1   2   1 7639.02   98.72
  -1  -2  -1 7405.09  111.52
  -1  -2  -1 7511.47  109.03
  -1  -2  -1 7757.40  100.57
   1   2   1 7693.95  113.86
  -1  -2  -1 7713.40   93.04
   1   2   1 7796.09  117.12
   1   2   2  691.95   37.75
  -1  -2  -2  639.54   38.49
   1   2   2  606.46   37.80
   1   2   2  760.55   48.16
  -1  -2  -2  674.42   32.81
  -1  -2  -2  820.07   57.50
   1   2   2  647.57   32.99
  -1   3   3  421.44   43.46
  -1   3   3  350.80   36.27
   1  -3  -3  490.98   43.58
   1  -3  -2 1509.14   50.23
  -1   3   2 1004.96   37.41
   1  -3  -2 1300.84   57.89
  -1   3   2 1382.60   58.58
   1  -3  -2 1247.57   49.19
   1  -3  -2 1346.67   55.97
  -1   3   2 1432.35   55.12
  -1   3   2 1145.74   49.20
  -1   3   2 1196.60   54.27
  -1   3   1 4310.58  111.37
   1  -3  -1 4550.03   91.68
  -1   3   1 4460.62  119.71
  -1   3   1 4475.27  112.95
  -1   3   1 4310.79   97.71
  -1  -3  -1 1791.84   52.09
  -1  -3  -1 1807.94   67.23
   1   3   1 1886.87   73.29
  -1  -3  -1 1631.75   63.49
  -1  -3  -1 1989.01   73.18
   1   3   1 1897.82   67.89
   1   3   1 1836.38   67.98
   1   3   1 1796.87   51.87
   1   3   2 1232.23   55.22
   1   3   2 1148.71   52.58
  -1  -3  -2 1084.45   47.72
   1   3   2 1186.04   51.90
  -1  -3  -2 1140.50   53.21
  -1  -3  -2 1042.15   47.15
   1   3   2 1268.14   62.02
   1   3   3   85.43   25.62
   1   3   3   66.24   18.24
  -1   4   3  157.66   24.57
  -1   4   3  158.53   24.25
   1  -4  -3  148.59   22.87
  -1   4   3  169.01   24.20
  -1   4   3  145.81   23.57
   1  -4  -3  142.58   21.15
   1  -4  -3  163.53   24.06
  -1   4   2   12.73    7.99
   1  -4  -2   26.71    9.33
  -1   4   2   19.91    9.30
   1  -4  -2   16.21    8.99
  -1   4   2   22.69    8.82
   1  -4  -2   13.39    7.17
  -1   4   2   27.23   10.88
   1   4   1 2590.25  128.52
   1   4   1 2613.94  124.04
   1   4   1 2617.20  128.46
  -1  -4  -2 1295.71   64.60
   1   4   2 1273.60   66.46
  -1  -4  -2 1313.97   64.53
   1   4   2 1282.07   69.29
   1   4   2 1209.64   60.95
  -1  -4  -2 1063.09   57.93
   1   4   2 1201.69   62.61
  -1  -4  -2 1477.10   72.99
  -1  -4  -3 2089.89   85.81
   1   4   3 2260.39  113.78
   1   4   3 1670.27   74.90
   1   4   3 2339.81  106.59
  -1  -4  -3 2061.25   88.03
  -1  -4  -3 1853.64   87.07
   1   4   3 2005.42   84.69
  -1  -4  -3 1985.33   84.13
   1  -5  -4  331.17   43.17
   1  -5  -4  338.59   46.75
  -1   5   4  276.71   52.12
  -1   5   4  254.46   44.49
   1  -5  -4  408.61   55.66
  -1   5   3   16.52   10.30
   1  -5  -3    1.47    6.71
   1  -5  -3    9.36    9.27
  -1   5   3    6.52    8.85
   1  -5  -3   17.56    9.77
  -1   5   3   10.22    9.81
   1  -5  -3    5.15    8.02
  -1   5   2  103.44   27.01
  -1   5   2   95.60   25.37
   1  -5  -2  177.03   34.26
  -1   5   2  107.56   28.68
   1   5   2 2780.01   83.80
   1   5   2 2748.81   88.55
  -1  -5  -3  134.42   26.46
  -1  -5  -3  140.59   26.56
  -1  -5  -3  117.12   23.89
   1   5   3  112.48   25.44
   1   5   3  143.53   26.46
   1   5   3  128.77   27.01
   1   5   4   43.74   22.80
  -1  -5  -4  185.04   46.60
   1  -6  -4  544.37   65.43
   1  -6  -4  565.17   86.50
  -1   6   4  585.70   81.32
   1  -6  -4  538.27   71.98
  -1   6   4  556.65   98.39
  -1   6   4  550.29  123.24
  -1   6   3   76.31   25.60
   1  -6  -3   86.91   25.92
  -1   6   3   74.19   29.76
  -1   6   3   52.65   21.56
   1  -6  -3  129.27   32.87
  -1  -6  -3    4.04   10.21
  -1  -6  -3   -7.30   16.53
  -1  -6  -3  -32.25   25.90
   1   6   3   -0.57   13.21
   1   6   3    2.71   16.51
  -1  -6  -4  457.15   89.75
  -1  -6  -4  446.70   98.62
   1   6   4  479.14  103.39
  -1   7   4   78.69   34.08
  -1   7   4  120.19   51.33
   1  -7  -4  200.71   49.21
  -2   0   1    0.85    2.64
   2   0  -1    0.33    2.85
  -2   0   1    0.95    2.66
  -2   0   1   -0.14    2.27
   2   0  -1    0.56    3.04
   2   0  -1   -2.83    3.95
  -2   0   1    0.58    1.99
   2   0  -1   -0.29    3.06
   2   0   0  566.91   27.59
  -2   0   0  577.91   30.97
  -2   0   0  628.68   31.85
   2   0   0  634.64   32.74
   2   0   0  591.15   32.25
   2   0   0  647.60   33.18
  -2   0   0  600.67   30.49
  -2   0   0  589.75   25.18
  -2   0   0  590.84   27.05
  -2   0  -1   -3.75    4.73
   2   0   1    1.02    2.26
   2   0   1   -0.99    3.39
  -2   1   1  594.42   26.37
  -2   1   1  492.62   25.95
   2  -1  -1  493.53   26.07
  -2   1   1  520.79   26.03
   2  -1  -1  522.13   30.51
  -2   1   1  569.68   32.82
   2  -1  -1  497.01   30.62
   2  -1  -1  461.20   22.85
  -2   1   1  580.08   26.97
   2  -1  -1  520.32   28.11
  -2   1   1  601.52   32.90
   2  -1   0 3073.69   74.67
  -2  -1   0 3114.32   74.58
  -2  -1   0 2972.92   64.07
  -2   1   0 2766.67   73.57
   2  -1   0 3000.50   71.19
   2   1   0 2961.35   71.55
  -2   1   0 2974.75   70.55
   2   1   0 3028.25   67.67
  -2  -1   0 3020.38   62.92
  -2   1   0 2886.97   68.56
   2   1   0 3085.35   61.93
  -2  -1   0 2925.48   70.06
   2   1   0 2950.22   70.55
  -2  -1   0 2963.69   69.95
   2   1   0 3350.64   83.70
  -2   1   0 3087.11   77.32
   2  -1   0 2821.76   71.34
  -2   1   0 2957.89   56.63
   2   1   1 5026.00  106.28
   2   1   1 4868.45  102.51
  -2  -1  -1 5007.76  102.19
   2   1   1 5243.83   90.50
   2   1   1 4672.07   99.08
  -2  -1  -1 5257.83   89.99
  -2  -1  -1 4914.10   98.00
  -2  -1  -1 4939.62   99.61
   2   1   1 5137.86  104.92
   2  -2  -2  771.05   41.14
  -2   2   2  826.55   30.33
  -2   2   2  825.99   43.95
   2  -2  -2  755.27   29.42
   2  -2  -2  729.24   41.82
  -2   2   2  820.00   41.45
   2  -2  -2  785.65   46.11
  -2   2   2  921.39   49.19
  -2   2   2  808.03   46.63
   2  -2  -1 9166.48  132.95
  -2   2   1 9951.52  142.12
   2  -2  -1 9469.89  129.93
  -2   2   1 9641.62  117.17
  -2   2   1 9665.62  130.99
   2  -2  -1 9675.00  111.32
  -2   2   1 9544.07  105.90
   2  -2  -1 9999.00  124.57
  -2   2   1 8793.16  143.44
  -2   2   1 9800.38  124.28
   2   2   0 2468.38  100.55
   2   2   0 2611.84  241.92
  -2  -2   0 3049.02  106.04
  -2  -2   0 1947.73   95.91
   2   2   0 2159.46   90.59
   2   2   0 2641.77  101.14
  -2  -2   0 2779.52   99.23
   2   2   1 5411.59  114.37
  -2  -2  -1 5025.52   98.04
  -2  -2  -1 5397.00   80.91
  -2  -2  -1 4833.38   97.91
  -2  -2  -1 5609.69   85.42
  -2  -2  -1 4979.72   80.22
   2   2   1 5021.93  102.01
   2   2   1 5232.10   85.50
  -2  -2  -1 5344.35  103.48
   2   2   1 5426.49   96.26
   2   2   1 5010.45  103.87
   2   2   1 4977.48   82.96
  -2  -2  -1 5222.21  108.35
   2   2   1 4901.83  104.29
   2   2   2  948.46   54.81
  -2  -2  -2 1034.90   50.67
   2   2   2  996.56   51.99
  -2  -2  -2  980.04   52.12
  -2   3   3  373.67   32.67
  -2   3   3  362.77   37.47
   2  -3  -3  333.63   34.63
   2  -3  -3  374.77   39.47
  -2   3   3  388.19   38.97
  -2   3   3  473.58   54.14
   2  -3  -2  598.12   40.02
  -2   3   2  660.86   41.32
   2  -3  -2  663.97   41.98
   2  -3  -2  699.63   40.37
  -2   3   2  702.85   43.71
   2  -3  -2  542.45   38.82
  -2   3   2  688.65   42.76
  -2   3   2  676.22   38.47
  -2   3   1  786.61   48.81
   2  -3  -1  751.76   50.76
   2  -3  -1  722.12   45.99
  -2   3   1  707.49   50.61
  -2  -3  -1 7386.12  209.62
   2   3   1 7409.33  155.90
  -2  -3  -1 7673.05  139.97
   2   3   1 7580.54  137.98
   2   3   1 7475.64  125.86
  -2  -3  -1 7088.26  141.01
  -2  -3  -1 7134.84  148.17
   2   3   1 7181.77  151.83
   2   3   2  995.21   57.56
  -2  -3  -2 1056.86   49.98
  -2  -3  -2 1056.10   51.40
  -2  -3  -2  990.76   54.70
   2   3   2 1137.19   55.54
  -2  -3  -2  930.40   52.77
   2   3   2 1027.22   52.46
   2   3   2  911.63   56.68
  -2  -3  -3 5147.93  160.37
  -2   4   3 2049.24   89.58
   2  -4  -3 1792.80   80.63
  -2   4   3 2125.51   92.88
   2  -4  -3 1945.95   85.58
   2  -4  -3 1990.34   88.79
  -2   4   3 2147.47   90.94
  -2   4   2   58.18   14.98
  -2   4   2   62.99   16.26
   2  -4  -2   62.36   16.83
   2  -4  -2   44.39   15.02
  -2   4   2   51.82   13.94
   2   4   1 1165.37   51.54
   2   4   1 1199.02   51.20
  -2  -4  -1 1203.93   80.82
  -2  -4  -1 1229.42   70.85
   2   4   1 1177.16   56.33
   2   4   2    0.71    5.83
  -2  -4  -2   -0.67    5.81
  -2  -4  -2    1.49    5.30
   2   4   2   -1.77    8.64
   2   4   3   23.22   14.25
   2   4   3   14.50    9.03
  -2  -4  -3   20.98   10.72
  -2  -4  -3   23.69   13.11
   2  -5  -4  178.19   32.81
   2  -5  -4  185.35   36.00
   2  -5  -4   56.07   18.17
  -2   5   4  146.64   32.16
  -2   5   4   92.69   31.73
  -2   5   4  157.40   39.78
  -2   5   3   16.86   10.42
  -2   5   3    7.99    6.99
   2  -5  -3    5.93   11.23
   2  -5  -3    7.05   10.54
   2  -5  -3   16.43   11.00
  -2   5   3    8.09    7.71
  -2   5   2 2218.35  117.93
  -2   5   2 2168.68   81.50
   2   5   2  513.60   56.60
  -2  -5  -2  689.95   98.94
   2   5   2  714.79   74.73
   2   5   3  603.21   58.89
  -2  -5  -3  643.79   57.71
  -2  -5  -3  820.39   72.01
   2   5   3  773.87   72.42
  -2   6   4  377.63   65.80
  -2   6   4  269.21   49.00
   2  -6  -4  195.51   38.36
   2  -6  -4  265.78   47.72
  -2   6   3   67.55   29.28
  -2   6   3   45.49   21.19
   2  -6  -3   85.36   28.20
   2  -6  -3   60.48   25.97
  -2  -6  -3   23.19   15.41
   2   6   3   -9.00   23.39
   2   6   4  142.50   56.18
  -2  -6  -4  246.57   58.20
   3   0  -1    1.47    2.87
  -3   0   1   -1.76    4.76
  -3   0   1    1.29    3.95
  -3   0   1   -2.78    3.15
   3   0  -1   -0.79    5.09
   3   0  -1    9.22    7.65
   3   0  -1    1.65    2.27
  -3   0   1    1.72    4.32
   3   0  -1   -0.49    3.83
   3   0   0  933.77   45.92
  -3   0   0  916.61   48.21
  -3   0   0  944.42   49.23
  -3   0   0  983.79   50.05
   3   0   0  989.13   51.63
   3   0   0  937.83   49.94
   3   0   0  965.95   52.63
   3   0   0  994.03   40.63
  -3   0   0 1084.51   45.40
  -3   0   0  853.08   38.81
  -3   0  -1   -1.18    5.19
   3   0   1   -0.46    4.80
   3   0   1   -1.97    4.90
  -3   0  -1   -1.78    5.55
   3   0   1   -3.58    7.56
  -3   0  -1    1.32    3.87
  -3   1   2   93.00   16.40
  -3   1   2   66.78   10.52
   3  -1  -2  111.26   18.67
   3  -1  -2   82.07   14.39
  -3   1   2   89.74   15.77
   3  -1  -2  133.15   18.27
  -3   1   2   92.90   14.16
   3  -1  -1 3903.13   75.24
  -3   1   1 4097.37   92.59
  -3   1   1 3878.54   95.11
  -3   1   1 4323.82  108.93
   3  -1  -1 3873.89   96.80
  -3  -1   1  338.68  192.90
   3  -1  -1 3837.51  103.85
   3  -1  -1 4105.55   99.72
   3  -1  -1 3806.54   96.24
  -3   1   1 4153.24   97.54
   3   1  -1   52.28  318.18
  -3  -1   1 2391.67  662.76
   3   1   0 1171.06   54.26
  -3  -1   0 1290.34   57.68
  -3  -1   0 1352.51   59.93
  -3   1   0 1264.21   55.51
  -3  -1   0 1211.99   52.05
  -3  -1   0 1110.82   55.16
   3  -1   0 1375.70   61.41
  -3   1   0 1371.20   62.73
  -3   1   0 1191.01   54.63
   3   1   0 1207.83   53.40
   3   1   0  615.23   44.34
   3  -1   0 1275.93   57.22
  -3  -1   0 1205.40   52.63
   3   1   0 1284.24   59.37
  -3   1   0  728.78   51.16
  -3   1   0 1236.02   43.59
   3   1   0 1275.49   47.01
   3  -1   0 1208.88   57.49
   3   1   1 1394.17   66.35
  -3  -1  -1 1476.69   66.16
  -3  -1  -1 1539.40   62.17
  -3  -1  -1 1444.03   66.38
   3   1   1 1382.16   58.43
  -3  -1  -1 1498.81   52.01
   3   1   1 1363.81   66.86
   3   1   1 1316.83   64.09
  -3  -1  -1 1468.95   63.75
  -3   2   2  109.69   15.14
  -3   2   2   74.56   19.08
  -3   2   2   93.69   17.55
   3  -2  -2   90.35   13.89
  -3   2   2  108.16   56.64
   3  -2  -2  105.12   18.02
   3  -2  -2   96.34   17.82
   3  -2  -2   94.06   17.88
  -3   2   2  107.73   19.67
   3  -2  -2  195.44  148.21
  -3   2   2  103.44   16.21
  -3   2   1   23.26    7.00
  -3   2   1   21.77    8.51
  -3   2   1   22.71    9.06
   3  -2  -1   26.34    9.90
   3  -2  -1   15.03    6.97
  -3   2   1   19.15    7.00
  -3   2   1   11.56    5.03
  -3   2   1   15.94    7.64
   3  -2  -1    9.96    4.98
   3  -2  -1   15.34    6.98
  -3  -2   0  935.18   67.58
  -3  -2   0 1067.08   66.63
   3   2   0 1210.14   73.44
   3   2   0 1142.08   69.53
  -3  -2   0 1217.04   61.67
   3   2   0 1217.93   78.78
  -3  -2   0 1132.10   67.89
   3   2   0 1247.33   65.60
   3   2   1 2453.95   88.75
  -3  -2  -1 2547.60   85.14
  -3  -2  -1 2699.93   88.75
   3   2   1 2646.54   90.23
  -3  -2  -1 2749.17   79.45
   3   2   1 1778.73   77.62
  -3  -2  -1 2793.30   91.89
   3   2   1 1845.44   74.02
   3   2   2 1169.59   68.32
  -3  -2  -2 1235.36   64.74
  -3  -2  -2 1173.86   64.34
   3   2   2 1133.68   64.76
  -3  -2  -2 1223.69   65.55
  -3   3   3 2525.29   95.34
  -3   3   3 2419.59   94.70
   3  -3  -3 2502.98  102.60
  -3   3   2 1387.86   66.24
  -3   3   2 1297.58   63.40
   3  -3  -2 1085.46   56.37
   3  -3  -2 1353.43   65.50
  -3   3   2 1296.49   61.47
   3  -3  -2 1226.47   63.43
   3  -3  -2 1134.21   61.89
  -3   3   2 1358.32   71.98
  -3   3   1 7551.81  143.85
  -3   3   1 7268.57  169.66
   3  -3  -1 7794.67  178.67
  -3  -3  -1 3581.58  125.66
   3   3   1 3063.65  115.04
  -3  -3  -1 3339.23  111.82
   3   3   1 3421.19  126.14
  -3  -3  -1 3462.64  109.77
  -3  -3  -1 3159.50  111.48
   3   3   1 3001.36  107.96
   3   3   1 3286.87  112.88
  -3  -3  -2  327.25   34.87
   3   3   2  266.88   34.10
  -3  -3  -2  336.35   34.51
  -3  -3  -2  288.62   31.74
   3   3   2  337.48   38.07
  -3  -3  -2  294.34   34.43
   3   3   2  312.98   38.46
   3   3   2  316.79   35.27
  -3   4   3  426.41   44.49
  -3   4   3  413.51   42.56
   3  -4  -3  362.85   38.61
   3  -4  -3  375.88   39.44
   3  -4  -3  345.75   39.32
  -3   4   3  328.48   40.44
  -3   4   2  568.30   45.88
   3  -4  -2  532.10   44.58
   3  -4  -2  570.68   52.68
   3  -4  -2  675.63   56.24
  -3   4   2  471.63   45.57
   3  -4  -2  526.02   50.07
  -3   4   2  658.27   61.37
  -3   4   2  407.54   43.50
  -3  -4  -1  868.46   82.15
   3   4   1  147.08   38.76
  -3  -4  -1  879.41  104.46
   3   4   1   92.29   38.32
   3   4   2    7.90    7.01
  -3  -4  -2   -1.07    7.54
  -3  -4  -2   11.76    9.32
   3   4   2    2.04    7.58
   3   4   3  551.34   54.30
  -3  -4  -3  766.76   59.81
   3   4   3  650.45   85.60
  -3   5   4   79.80   31.52
  -3   5   4  108.24   26.77
   3  -5  -4  219.79   40.51
   3  -5  -4  181.98   33.06
   3  -5  -4  135.70   28.98
  -3   5   4  141.75   34.28
  -3   5   3  675.77   61.17
  -3   5   3  815.28   76.11
   3  -5  -3  588.24   55.26
   3  -5  -3  669.82   62.96
   3  -5  -3  651.05   64.60
  -3   5   3  544.64   56.97
   3   5   2   78.91   32.08
  -3  -5  -2  264.16   43.58
  -3  -5  -2  279.37   59.68
   3   5   2   92.78   32.15
   3   5   3  166.67   44.86
   3   5   3   96.92   27.34
  -3  -5  -3  116.82   27.12
  -3  -5  -3  150.75   40.36
  -3   6   4  351.07  121.98
  -3   6   4  378.88   86.80
   3  -6  -4  346.82   86.18
   3  -6  -4  356.65   73.90
   3  -6  -4  356.99   75.54
  -3   6   4  393.32   94.77
  -3  -6  -3   -3.15   11.44
   3   6   3  -13.19   36.53
   4   0  -1   -1.57    4.38
  -4   0   1    6.88    9.50
  -4   0   1    0.17    6.40
  -4   0   1    5.49    6.95
   4   0  -1   -2.92    5.88
   4   0  -1   -3.57    7.57
   4   0  -1   -2.69    7.86
  -4   0   1   -2.01   38.81
   4   0   0 3180.15  102.71
  -4   0   0 2710.72   95.98
  -4   0   0 2209.69   90.87
  -4   0   0 2471.21   91.40
   4   0   0 3066.05  105.27
   4   0   0 2991.34  106.06
   4   0   0 2887.08  105.49
  -4   0   0 2644.42   80.21
  -4   0  -1    0.23    6.90
   4   0   1   -3.00    7.31
   4   0   1    7.39    7.26
  -4   0  -1    0.60    5.54
   4   0   1   -5.22    9.88
  -4   0  -1   -9.83    9.53
  -4   1   2  103.38   18.43
   4  -1  -2  140.68   21.07
  -4   1   2  152.63   24.95
   4  -1  -2  140.85   24.04
  -4   1   2  162.59   25.13
   4  -1  -1   26.29   10.04
   4   1  -1    7.06   15.46
  -4  -1   1   13.01   15.59
  -4   1   1   23.04    9.22
  -4  -1   1   21.30   22.46
  -4   1   1   26.18   10.51
  -4  -1   1   13.55   16.81
   4  -1  -1   11.47    7.05
  -4   1   1   24.20   11.03
   4  -1  -1   24.28   10.38
   4   1  -1   -6.85   19.91
   4   1  -1  -20.22   22.56
  -4   1   1   22.66    8.05
   4  -1  -1   21.17    8.66
   4   1   0 3099.59  105.17
  -4  -1   0 2910.20  104.10
  -4   1   0 3006.91  100.98
   4  -1   0 2880.71  107.36
  -4  -1   0 3071.72  106.10
  -4  -1   0 2737.15   92.89
  -4   1   0 2808.29  105.13
   4   1   0 3071.55  107.25
   4   1   0 2389.23   90.76
  -4   1   0 2741.71  100.88
   4   1   0 3126.73  116.29
   4  -1   0 3044.95  110.24
   4  -1   0 2982.99  105.66
   4  -1   0 3030.44   97.49
  -4  -1   0 2817.04   93.66
   4   1   1   67.30   18.24
  -4  -1  -1   77.93   18.44
  -4  -1  -1   77.45   18.20
   4   1   1   54.23   13.30
   4   1   1   77.83   19.00
  -4  -1  -1   81.48   18.97
   4   1   1   65.93   18.10
  -4  -1  -1   78.15   16.60
   4  -2  -2   10.41    7.54
  -4   2   2   16.42    9.43
  -4   2   2    8.18    6.72
   4  -2  -2    4.09    8.91
   4  -2  -2    0.28    6.56
  -4   2   2   10.40    9.20
   4  -2  -1 2604.54   95.32
  -4   2   1 2880.91   94.44
  -4   2   1 3122.78  113.11
  -4   2   1 2899.06   96.20
   4  -2  -1 2448.46   95.30
   4  -2  -1 2597.66   95.71
   4  -2  -1 2568.89   94.55
  -4   2   1 2406.82   99.51
   4   2   0 1063.79  113.09
  -4  -2   0 1128.15  115.48
   4   2   0 1075.62  116.36
   4   2   0 1148.59  127.76
  -4  -2   0 1100.86  109.23
  -4  -2  -1 1295.91   73.03
   4   2   1 1241.71   73.48
  -4  -2  -1 1312.25   74.29
   4   2   1 1375.68   79.96
   4   2   1 1209.71   71.75
  -4  -2  -1 1368.53   73.27
   4   2   2  158.91   27.97
  -4  -2  -2  444.62   43.34
   4   2   2  220.25   31.84
  -4  -2  -2  438.55   43.45
  -4   3   3 1093.68   69.95
  -4   3   3 1078.56   70.06
  -4   3   2  253.20   33.61
   4  -3  -2  225.36   31.42
   4  -3  -2  160.61   26.07
  -4   3   2  266.06   36.34
  -4   3   1  121.05   26.03
   4  -3  -1  132.23   27.59
   4  -3  -1  145.31   26.37
  -4   3   1   82.87   26.51
  -4  -3  -1  212.48   38.74
   4   3   1  184.45   33.95
  -4  -3  -1  189.77   32.63
   4   3   1  185.62   36.76
   4   3   1  175.29   32.31
  -4  -3  -1  196.57   33.01
  -4  -3  -2  344.74   43.09
   4   3   2  298.67   39.16
   4   3   2  320.43   42.95
   4   3   2  336.56   45.42
  -4  -3  -2  402.03   46.57
  -4  -3  -2  328.52   40.81
  -4   4   3  586.46   56.62
   4  -4  -3  511.08   51.67
   4  -4  -3  452.62   50.73
  -4   4   3  600.61   60.15
  -4   4   2  402.82   48.00
   4  -4  -2  659.78   71.01
   4  -4  -2  492.32   53.56
  -4   4   2  604.88   64.00
   4   4   1   30.38   50.53
  -4  -4  -1  663.87  125.38
   4   4   2   68.98   23.10
  -4  -4  -2   80.61   22.58
  -4  -4  -2   77.87   24.55
   4   4   2  117.77   42.76
   4  -5  -4   80.93   21.45
  -4   5   4  124.02   32.97
   4  -5  -3  446.05   61.62
  -4   5   3  420.83   59.25
   4   5   2   22.70   36.24
  -4  -5  -2  150.78   77.44
   4   5   3    2.59   11.70
  -4   6   4   36.45   28.89
  -4   6   4   27.20   20.13
   4  -6  -4   99.18   31.71
  -5   0   1   -8.31   11.36
  -5   0   1   -0.51    8.45
   5   0  -1   -3.39    7.29
  -5   0   1    8.60    9.99
   5   0  -1   -2.70    8.59
   5   0  -1    2.10    7.96
  -5   0   0 4333.83  158.09
  -5   0   0 4284.21  163.44
  -5   0   0 4335.39  174.07
   5   0   0 4277.80  170.14
   5   0   0 4253.97  171.84
   5   0   0 4266.73  172.09
  -5   1   2 2209.31   88.16
   5  -1  -2 2213.79   69.50
   5  -1  -2 2225.34   86.45
  -5   1   2 2212.76   98.13
  -5   1   1  230.95   31.96
   5   1  -1    2.01   10.89
  -5  -1   1  125.71   63.09
  -5   1   1  232.03   35.06
  -5   1   1  234.07   34.50
  -5  -1   1   70.66   68.76
   5  -1  -1  133.51   24.61
   5  -1  -1  203.08   32.21
  -5  -1   1   88.14   45.06
   5  -1  -1  215.30   32.67
   5   1  -1    8.28   33.38
   5   1  -1   19.53   26.00
  -5  -1   0  557.11   55.75
   5   1   0  602.99   55.51
  -5   1   0  353.16   41.97
  -5  -1   0  526.87   52.92
  -5  -1   0  608.37   57.85
  -5   1   0  373.46   47.46
   5  -1   0  419.04   50.17
   5   1   0  542.36   49.98
   5   1   0  622.76   60.77
   5  -1   0  560.65   57.51
  -5   1   0  345.47   43.72
   5   1   0  540.59   55.13
   5  -1   0  506.11   53.11
  -5  -1   0  526.06   50.15
   5   1   1   37.51   14.91
  -5  -1  -1   55.65   16.54
  -5  -1  -1   84.53   21.36
   5   1   1   71.95   22.63
  -5  -1  -1   55.80   18.18
  -5   2   2   16.09    9.95
   5  -2  -2    7.27    9.57
   5  -2  -2   26.68   14.45
  -5   2   2   20.16   10.62
   5  -2  -1   38.19   15.18
  -5   2   1   67.68   18.20
  -5   2   1   63.15   19.28
   5  -2  -1   47.60   16.23
   5  -2  -1   67.16   18.21
  -5   2   1   36.43   18.06
   5  -2  -1   79.14   21.69
  -5   2   1   69.67   19.88
   5   2   0 1376.14  172.91
  -5  -2   0 1400.91  176.18
   5   2   0 1409.14  183.81
   5   2   0 1379.77  184.45
   5   2   1   47.78   18.75
  -5  -2  -1   47.98   18.92
   5   2   1   44.57   15.90
  -5  -2  -1   65.12   20.35
   5   2   1   49.19   20.11
  -5  -2  -1   70.55   20.43
  -5   3   3   49.41   16.66
   5  -3  -3   38.26   14.54
  -5   3   3   52.30   16.92
  -5   3   2  441.02   51.07
   5  -3  -2  298.17   45.40
   5  -3  -2  311.53   42.90
  -5   3   2  470.50   57.34
   5   3   1  111.04   39.05
  -5  -3  -1  100.21   38.63
   5   3   1   78.26   33.22
  -5  -3  -1  137.91   39.90
   5   3   1   35.61   22.16
  -5  -3  -1  155.99   41.11
   5   3   2   49.30   19.58
   5   3   2   28.23   16.65
  -5   4   3  462.19   56.60
   5  -4  -3  499.25   63.18
   5  -4  -3  426.48   51.34
  -5   4   3  573.00   64.29
   5  -4  -2   18.63   15.96
   5   4   2  449.71   77.02
   5  -5  -3   33.70   24.01
  -5   5   3   -5.44   11.43
  -6   0   1  -13.13   17.89
   6   0  -1    2.23   10.81
   6   0  -1   -1.32   10.10
  -6   0   1   -6.42   12.83
   6   0  -1  -15.74   17.32
  -6   0   0  290.20   45.81
   6   0   0  299.22   49.89
  -6   0   0  223.38   45.52
   6   0   0  252.22   42.12
   6   0   0  288.91   47.18
  -6   0   0  307.50   46.76
  -6   1   2   28.12   18.59
   6  -1  -2   68.27    7.48
   6  -1  -1   12.61   12.64
  -6   1   1   24.29   17.93
  -6   1   1    6.83   10.96
   6  -1  -1   15.84   13.49
  -6   1   1   21.86   12.10
   6  -1  -1   -1.58   12.07
  -6  -1   0  149.22   66.11
  -6  -1   0  158.99   66.46
   6   1   0  157.94   71.68
   6   1   0  158.05   71.57
  -6   2   2  512.92   59.14
   6  -2  -2  456.62   52.28
  -6   2   1   40.97   21.89
   6  -2  -1    9.55   12.92
  -6  -2   0  -43.22   62.36
   6   2   0  -41.34  208.95
  -6  -2   0   27.58  198.05
   6   2   0  -18.74   63.62
   6   2   1   -7.44   11.43
  -6  -2  -1   34.36   21.00
   6   2   1    2.29   13.42
   6   2   1   21.72   21.07
  -6  -2  -1   47.25   25.57
  -6  -2  -1   23.60   21.29
  -6   3   3   -5.54    6.28
  -6   3   2  181.95   38.14
   6  -3  -2  170.20   38.04
   6  -3  -2  127.25   33.29
   0   0   0    0.00    0.00


TITL dimethyl_ether_phase_beta_3_30GPa in P2(1)/c
REM P2(1)/c (#14 in standard setting)
CELL 0.71073   5.554101   6.617934   6.964275  90.0000 103.8348  90.0000
ZERR    4.00   0.000427   0.001112   0.003121   0.0000   0.0187   0.0000
LATT  1
SYMM -x, y+1/2,-z+1/2
SFAC C H O
UNIT 8.00 24.00 4.00
TREF
HKLF 4
END
_computing_structure_solution     'SHELXT 2018/2 (Sheldrick, 2018)'
;
_shelx_hkl_checksum              54851
_olex2_submission_special_instructions 'No special instructions were received'
loop_
_space_group_symop_operation_xyz
'x, y, z'
'-x, y+1/2, -z+1/2'
'-x, -y, -z'
'x, -y-1/2, z-1/2'
loop_
_atom_site_label
_atom_site_type_symbol
_atom_site_fract_x
_atom_site_fract_y
_atom_site_fract_z
_atom_site_U_iso_or_equiv
_atom_site_adp_type
_atom_site_occupancy
_atom_site_site_symmetry_order
_atom_site_calc_flag
_atom_site_refinement_flags_posn
_atom_site_refinement_flags_adp
_atom_site_refinement_flags_occupancy
_atom_site_disorder_assembly
_atom_site_disorder_group
O1 O 0.7278(6) 0.3356(6) 0.1855(8) 0.043(3) Uani 1 1 d . . . . .
C1 C 0.9093(9) 0.1818(8) 0.2325(13) 0.047(4) Uani 1 1 d . . . . .
H11 H 0.917067 0.110106 0.114280 0.071 Uiso 1 1 calc R U . . .
H12 H 0.866040 0.089681 0.325303 0.071 Uiso 1 1 calc R U . . .
H13 H 1.067867 0.241268 0.289666 0.071 Uiso 1 1 calc R U . . .
C2 C 0.4941(10) 0.2536(8) 0.0858(17) 0.050(5) Uani 1 1 d . . . . .
H22 H 0.506093 0.198930 -0.039215 0.076 Uiso 1 1 calc R U . . .
H23 H 0.370885 0.358270 0.064545 0.076 Uiso 1 1 calc R U . . .
H21 H 0.448008 0.148453 0.164991 0.076 Uiso 1 1 calc R U . . .
loop_
_atom_site_aniso_label
_atom_site_aniso_U_11
_atom_site_aniso_U_22
_atom_site_aniso_U_33
_atom_site_aniso_U_23
_atom_site_aniso_U_13
_atom_site_aniso_U_12
O1 0.035(2) 0.035(4) 0.057(10) -0.0003(16) 0.003(3) -0.0002(13)
C1 0.039(3) 0.031(6) 0.071(15) 0.004(3) 0.011(4) 0.006(2)
C2 0.041(3) 0.030(6) 0.075(17) -0.001(2) 0.003(4) 0.002(2)
loop_
_atom_type_symbol
_atom_type_description
_atom_type_scat_dispersion_real
_atom_type_scat_dispersion_imag
_atom_type_scat_source
C C 0.0033 0.0016 'International Tables Vol C Tables 4.2.6.8 and 6.1.1.4'
H H 0.0000 0.0000 'International Tables Vol C Tables 4.2.6.8 and 6.1.1.4'
O O 0.0106 0.0060 'International Tables Vol C Tables 4.2.6.8 and 6.1.1.4'
loop_
_geom_angle_atom_site_label_1
_geom_angle_atom_site_label_2
_geom_angle_atom_site_label_3
_geom_angle
_geom_angle_site_symmetry_1
_geom_angle_site_symmetry_3
_geom_angle_publ_flag
C1 O1 C2 110.7(4) . . ?
O1 C1 H11 109.5 . . ?
O1 C1 H12 109.5 . . ?
O1 C1 H13 109.5 . . ?
H11 C1 H12 109.5 . . ?
H11 C1 H13 109.5 . . ?
H12 C1 H13 109.5 . . ?
O1 C2 H22 109.5 . . ?
O1 C2 H23 109.5 . . ?
O1 C2 H21 109.5 . . ?
H22 C2 H23 109.5 . . ?
H22 C2 H21 109.5 . . ?
H23 C2 H21 109.5 . . ?
loop_
_geom_bond_atom_site_label_1
_geom_bond_atom_site_label_2
_geom_bond_distance
_geom_bond_site_symmetry_2
_geom_bond_publ_flag
O1 C1 1.415(6) . ?
O1 C2 1.425(7) . ?
C1 H11 0.9600 . ?
C1 H12 0.9600 . ?
C1 H13 0.9600 . ?
C2 H22 0.9600 . ?
C2 H23 0.9600 . ?
C2 H21 0.9600 . ?
