#------------------------------------------------------------------------------
#$Date: 2024-02-04 14:32:50 +0200 (Sun, 04 Feb 2024) $
#$Revision: 289647 $
#$URL: file:///home/coder/svn-repositories/cod/cif/1/57/05/1570522.cif $
#------------------------------------------------------------------------------
#
# This file is available in the Crystallography Open Database (COD),
# http://www.crystallography.net/
#
# All data on this site have been placed in the public domain by the
# contributors.
#
data_1570522
loop_
_publ_author_name
'Birajdar, Rajkumar S.'
'Gonnade, Rajesh G.'
'Chikkali, Samir H.'
_publ_section_title
;
 Regulating the polyethylene microstructure by increasing steric crowding
 in naphthoxy imine-ligated Ni(ii) complexes
;
_journal_issue                   4
_journal_name_full               'Polymer Chemistry'
_journal_page_first              292
_journal_page_last               302
_journal_paper_doi               10.1039/D3PY01010D
_journal_volume                  15
_journal_year                    2024
_chemical_formula_moiety         'C69 H56 N Ni O2 P, 0.75(C10 H22)'
_chemical_formula_sum            'C76.5 H72.5 N Ni O2 P'
_chemical_formula_weight         1127.53
_space_group_crystal_system      triclinic
_space_group_IT_number           2
_space_group_name_Hall           '-P 1'
_space_group_name_H-M_alt        'P -1'
_atom_sites_solution_hydrogens   geom
_audit_creation_method           SHELXL-2014/7
_audit_update_record
;
2023-07-29 deposited with the CCDC.	2023-12-04 downloaded from the CCDC.
;
_cell_angle_alpha                109.298(5)
_cell_angle_beta                 101.650(6)
_cell_angle_gamma                92.667(6)
_cell_formula_units_Z            2
_cell_length_a                   10.6428(18)
_cell_length_b                   16.779(2)
_cell_length_c                   18.282(3)
_cell_measurement_reflns_used    9022
_cell_measurement_temperature    100(2)
_cell_measurement_theta_max      32.43
_cell_measurement_theta_min      2.54
_cell_volume                     2995.1(8)
_computing_cell_refinement       'SAINT (Bruker, 2016)'
_computing_data_collection       'APEX3 (Bruker, 2016)'
_computing_data_reduction        'SAINT (Bruker, 2016)'
_computing_molecular_graphics    'Bruker SHELXTL, Mercury 2020.20'
_computing_publication_material  'Bruker SHELXTL'
_computing_structure_refinement  'SHELXL-2018/3 (Sheldrick, 2018)'
_computing_structure_solution    'SHELXT 2014/5 (Sheldrick, 2014)'
_diffrn_ambient_temperature      100(2)
_diffrn_detector                 'Photon II CPAD Area Detector'
_diffrn_detector_area_resol_mean 7.39
_diffrn_measured_fraction_theta_full 0.975
_diffrn_measured_fraction_theta_max 0.974
_diffrn_measurement_device       '\k-geometry diffractometer'
_diffrn_measurement_device_type  'Bruker D8 VENTURE Kappa Duo PHOTON II CPAD'
_diffrn_measurement_method       '\f and \w scans'
_diffrn_radiation_monochromator  'multilayer mirrors'
_diffrn_radiation_type           MoK\a
_diffrn_radiation_wavelength     0.71073
_diffrn_reflns_av_R_equivalents  0.0393
_diffrn_reflns_av_unetI/netI     0.0497
_diffrn_reflns_Laue_measured_fraction_full 0.975
_diffrn_reflns_Laue_measured_fraction_max 0.974
_diffrn_reflns_limit_h_max       13
_diffrn_reflns_limit_h_min       -13
_diffrn_reflns_limit_k_max       20
_diffrn_reflns_limit_k_min       -20
_diffrn_reflns_limit_l_max       22
_diffrn_reflns_limit_l_min       -22
_diffrn_reflns_number            27254
_diffrn_reflns_point_group_measured_fraction_full 0.975
_diffrn_reflns_point_group_measured_fraction_max 0.974
_diffrn_reflns_theta_full        25.242
_diffrn_reflns_theta_max         25.999
_diffrn_reflns_theta_min         2.220
_diffrn_source                   'micro-focus sealed tube'
_diffrn_source_type              'Incoatech I\mS HB'
_exptl_absorpt_coefficient_mu    0.400
_exptl_absorpt_correction_T_max  0.4949
_exptl_absorpt_correction_T_min  0.4544
_exptl_absorpt_correction_type   multi-scan
_exptl_absorpt_process_details   'SADABS (Bruker, 2016)'
_exptl_crystal_colour            colourless
_exptl_crystal_density_diffrn    1.250
_exptl_crystal_description       block
_exptl_crystal_F_000             1195
_exptl_crystal_size_max          0.300
_exptl_crystal_size_mid          0.260
_exptl_crystal_size_min          0.240
_refine_diff_density_max         1.363
_refine_diff_density_min         -1.051
_refine_diff_density_rms         0.076
_refine_ls_extinction_method     none
_refine_ls_goodness_of_fit_ref   1.053
_refine_ls_hydrogen_treatment    constr
_refine_ls_matrix_type           full
_refine_ls_number_parameters     706
_refine_ls_number_reflns         11445
_refine_ls_number_restraints     18
_refine_ls_restrained_S_all      1.131
_refine_ls_R_factor_all          0.0667
_refine_ls_R_factor_gt           0.0545
_refine_ls_shift/su_max          0.001
_refine_ls_shift/su_mean         0.000
_refine_ls_structure_factor_coef Fsqd
_refine_ls_weighting_details
'w=1/[\s^2^(Fo^2^)+(0.0728P)^2^+4.2534P] where P=(Fo^2^+2Fc^2^)/3'
_refine_ls_weighting_scheme      calc
_refine_ls_wR_factor_gt          0.1400
_refine_ls_wR_factor_ref         0.1531
_reflns_Friedel_coverage         0.000
_reflns_number_gt                9561
_reflns_number_total             11445
_reflns_threshold_expression     'I > 2\s(I)'
_cod_data_source_file            d3py01010d2.cif
_cod_data_source_block           mo_rsb_ni_0m_b
_cod_depositor_comments
'Adding full bibliography for 1570522--1570524.cif.'
_cod_original_formula_sum        'C76.50 H72.50 N Ni O2 P'
_cod_database_code               1570522
_shelx_shelxl_version_number     2014/7
_shelx_space_group_comment
;
The symmetry employed for this shelxl refinement is uniquely defined
by the following loop, which should always be used as a source of
symmetry information in preference to the above space-group names.
They are only intended as comments.
;
_shelx_estimated_absorpt_t_min   0.889
_shelx_estimated_absorpt_t_max   0.910
_shelx_res_file
;

    mo_rsb_ni_0m_b.res created by SHELXL-2014/7


TITL mo_rsb_ni_0m_b_a.res in P-1
REM Old TITL mo_rsb_ni_0m_b.hkl
REM SHELXT solution in P-1
REM R1 0.128,  Rweak 0.008,  Alpha 0.047,  Orientation as input
REM Formula found by SHELXT:  Ni C69 O3 P
CELL  0.71073  10.6428  16.7793  18.2819  109.298  101.650   92.667
ZERR    2.000   0.0018   0.0024   0.0029    0.005    0.006    0.006
LATT  1
SFAC NI C H O N P
UNIT 2 153 145 4 2 2
L.S. 30
BOND $H
LIST 6
ACTA
EADP C70 > C79
DFIX 1.50 C70 C71
DFIX 1.50 C71 C72
DFIX 1.50 C72 C73
DFIX 1.50 C73 C74
DFIX 1.50 C74 C75
DFIX 1.50 C75 C76
DFIX 1.50 C76 C77
DFIX 1.50 C77 C78
DFIX 1.60 C78 C79
DANG 2.50 C70 C72
DANG 2.50 C71 C73
DANG 2.50 C72 C74
DANG 2.50 C73 C75
DANG 2.50 C74 C76
DANG 2.50 C75 C77
DANG 2.50 C76 C78
DANG 3.00 C77 C79
DFIX 3.00 C79 C70_$1
EQIV $1 1+X, Y, Z
OMIT -3.00 52.00
OMIT -1  -2   2
OMIT -1   1   2
OMIT -1   2  1
OMIT -1  -2   3
OMIT  0   1   1
OMIT -2  10  13
OMIT  0   4  16
OMIT  0   4  17
OMIT  4  -2  17
OMIT  11  -4   4
OMIT -5 -16  12
OMIT  4  -3  17
OMIT  1   0   0
OMIT -4   9  18
OMIT  9  -5  10
OMIT -6  16   9
OMIT -1  -2   1
OMIT  1   1   3
OMIT -1   0   1
OMIT  1   0   2
OMIT -1  -1   2
OMIT  1  -1   1
OMIT -1   3   1
TEMP -173.00
CONF
SIZE 0.30 0.26 0.24
FMAP 2
PLAN 20
WGHT    0.072800    4.253400
FVAR       0.73207
NI1   1    0.295602    0.243330    0.696861    11.00000    0.01457    0.01267 =
         0.01391    0.00406    0.00235    0.00007
P1    6    0.420834    0.148651    0.717687    11.00000    0.01536    0.01277 =
         0.01476    0.00361    0.00141   -0.00032
O1    4    0.243350    0.243371    0.790832    11.00000    0.01652    0.02358 =
         0.01838    0.00980    0.00501    0.00414
O2    4    0.399568    0.563654    0.562496    11.00000    0.02166    0.03027 =
         0.02886    0.01948    0.00087   -0.00638
N1    5    0.203444    0.338207    0.691519    11.00000    0.01306    0.01492 =
         0.01428    0.00459    0.00099   -0.00209
C1    2    0.326604    0.218470    0.592979    11.00000    0.02512    0.01672 =
         0.01831    0.00566    0.00386    0.00872
C2    2    0.431053    0.260832    0.577681    11.00000    0.02340    0.02361 =
         0.02125    0.00833    0.00517    0.00755
AFIX  43
H2    3    0.485450    0.306175    0.620057    11.00000   -1.20000
AFIX   0
C3    2    0.455954    0.237645    0.502053    11.00000    0.02396    0.02864 =
         0.03237    0.01518    0.00973    0.00675
AFIX  43
H3    3    0.527179    0.266498    0.493193    11.00000   -1.20000
AFIX   0
C4    2    0.375799    0.171856    0.439400    11.00000    0.03252    0.03138 =
         0.01985    0.01026    0.00522    0.01155
AFIX  43
H4    3    0.393512    0.154790    0.387900    11.00000   -1.20000
AFIX   0
C5    2    0.270451    0.131387    0.452157    11.00000    0.03440    0.02394 =
         0.01997    0.00572    0.00336    0.01030
AFIX  43
H5    3    0.215087    0.087420    0.408904    11.00000   -1.20000
AFIX   0
C6    2    0.244186    0.154464    0.528336    11.00000    0.02625    0.01904 =
         0.02138    0.00494    0.00285    0.00519
C7    2    0.127720    0.109025    0.538916    11.00000    0.02574    0.02767 =
         0.02425    0.00659   -0.00006    0.00130
AFIX 137
H7A   3    0.056057    0.098699    0.492523    11.00000   -1.50000
H7B   3    0.102576    0.144184    0.587040    11.00000   -1.50000
H7C   3    0.148629    0.054581    0.544079    11.00000   -1.50000
AFIX   0
C8    2    0.565840    0.128645    0.678148    11.00000    0.01867    0.01252 =
         0.02117    0.00576    0.00474    0.00132
C9    2    0.555352    0.097877    0.595551    11.00000    0.02222    0.01547 =
         0.02098    0.00465    0.00216    0.00281
AFIX  43
H9    3    0.472745    0.087408    0.560206    11.00000   -1.20000
AFIX   0
C10   2    0.664575    0.082672    0.565213    11.00000    0.03508    0.01855 =
         0.02372    0.00674    0.01189    0.00596
AFIX  43
H10   3    0.656208    0.061777    0.509199    11.00000   -1.20000
AFIX   0
C11   2    0.786289    0.097689    0.615933    11.00000    0.02626    0.01881 =
         0.03116    0.00509    0.01408    0.00199
AFIX  43
H11   3    0.860878    0.087226    0.594787    11.00000   -1.20000
AFIX   0
C12   2    0.797971    0.128002    0.697480    11.00000    0.01786    0.02664 =
         0.02846    0.00189    0.00378   -0.00159
AFIX  43
H12   3    0.880986    0.138588    0.732410    11.00000   -1.20000
AFIX   0
C13   2    0.688872    0.143066    0.728615    11.00000    0.02084    0.02367 =
         0.02146    0.00292    0.00467   -0.00077
AFIX  43
H13   3    0.697958    0.163345    0.784693    11.00000   -1.20000
AFIX   0
C14   2    0.329536    0.043351    0.687210    11.00000    0.02067    0.01727 =
         0.01558    0.00632   -0.00137   -0.00329
C15   2    0.378773   -0.031824    0.652984    11.00000    0.03217    0.01674 =
         0.02026    0.00603    0.00501   -0.00030
AFIX  43
H15   3    0.464550   -0.030081    0.645588    11.00000   -1.20000
AFIX   0
C16   2    0.302354   -0.110083    0.629384    11.00000    0.04838    0.01414 =
         0.02764    0.00340    0.00880   -0.00087
AFIX  43
H16   3    0.335999   -0.161273    0.605262    11.00000   -1.20000
AFIX   0
C17   2    0.178398   -0.113287    0.640964    11.00000    0.04735    0.02002 =
         0.03174    0.00703   -0.00170   -0.01332
AFIX  43
H17   3    0.127006   -0.166620    0.624997    11.00000   -1.20000
AFIX   0
C18   2    0.128692   -0.038665    0.675920    11.00000    0.02735    0.02759 =
         0.04262    0.01440    0.00200   -0.00718
AFIX  43
H18   3    0.043296   -0.040902    0.683884    11.00000   -1.20000
AFIX   0
C19   2    0.204084    0.039549    0.699337    11.00000    0.02393    0.02135 =
         0.03170    0.00752    0.00203   -0.00086
AFIX  43
H19   3    0.170128    0.090539    0.723655    11.00000   -1.20000
AFIX   0
C20   2    0.484200    0.175710    0.824828    11.00000    0.01334    0.01942 =
         0.01806    0.00472    0.00153    0.00262
C21   2    0.491998    0.114807    0.861085    11.00000    0.03519    0.02214 =
         0.02025    0.00602    0.00168    0.00300
AFIX  43
H21   3    0.462901    0.056737    0.830092    11.00000   -1.20000
AFIX   0
C22   2    0.542573    0.138598    0.943154    11.00000    0.04485    0.03520 =
         0.02334    0.01432    0.00363    0.00829
AFIX  43
H22   3    0.548047    0.096647    0.967708    11.00000   -1.20000
AFIX   0
C23   2    0.584565    0.223029    0.988528    11.00000    0.03080    0.04215 =
         0.01675    0.00465    0.00139    0.00995
AFIX  43
H23   3    0.618446    0.239146    1.044285    11.00000   -1.20000
AFIX   0
C24   2    0.577259    0.283937    0.952803    11.00000    0.01970    0.02719 =
         0.01922   -0.00421    0.00059    0.00225
AFIX  43
H24   3    0.606520    0.341914    0.984075    11.00000   -1.20000
AFIX   0
C25   2    0.527504    0.260973    0.871620    11.00000    0.01670    0.02093 =
         0.02336    0.00425    0.00456    0.00254
AFIX  43
H25   3    0.522712    0.303306    0.847517    11.00000   -1.20000
AFIX   0
C26   2    0.109542    0.359174    0.727035    11.00000    0.01388    0.01347 =
         0.01520    0.00307   -0.00106    0.00054
AFIX  43
H26   3    0.067943    0.405674    0.719482    11.00000   -1.20000
AFIX   0
C27   2    0.062050    0.319989    0.776154    11.00000    0.01650    0.01589 =
         0.01291    0.00206    0.00154   -0.00066
C28   2   -0.053851    0.344846    0.800814    11.00000    0.01771    0.01826 =
         0.02166    0.00476    0.00385    0.00088
AFIX  43
H28   3   -0.101664    0.381309    0.778896    11.00000   -1.20000
AFIX   0
C29   2   -0.097708    0.317986    0.854552    11.00000    0.01659    0.02305 =
         0.02128    0.00334    0.00634   -0.00037
AFIX  43
H29   3   -0.175434    0.335252    0.869365    11.00000   -1.20000
AFIX   0
C30   2   -0.026674    0.263681    0.888776    11.00000    0.02190    0.01904 =
         0.01356    0.00060    0.00211   -0.00543
C31   2   -0.071054    0.231883    0.943145    11.00000    0.02732    0.02831 =
         0.02118    0.00590    0.00960   -0.00346
AFIX  43
H31   3   -0.149685    0.247116    0.957790    11.00000   -1.20000
AFIX   0
C32   2   -0.001687    0.179408    0.974778    11.00000    0.03730    0.03381 =
         0.02324    0.01328    0.00972   -0.00619
AFIX  43
H32   3   -0.033775    0.157630    1.010163    11.00000   -1.20000
AFIX   0
C33   2    0.116143    0.157506    0.955486    11.00000    0.03532    0.02717 =
         0.02553    0.01304    0.00623    0.00016
AFIX  43
H33   3    0.164535    0.122359    0.978906    11.00000   -1.20000
AFIX   0
C34   2    0.161670    0.186958    0.902594    11.00000    0.02361    0.02175 =
         0.01980    0.00748    0.00214   -0.00045
AFIX  43
H34   3    0.241170    0.171646    0.889340    11.00000   -1.20000
AFIX   0
C35   2    0.091032    0.239695    0.867988    11.00000    0.01741    0.01878 =
         0.01486    0.00510    0.00039   -0.00380
C36   2    0.136254    0.267315    0.809032    11.00000    0.01569    0.01594 =
         0.01516    0.00254    0.00113   -0.00311
C37   2    0.249504    0.398883    0.659044    11.00000    0.01516    0.01150 =
         0.01546    0.00390    0.00322    0.00197
C38   2    0.356712    0.459009    0.706414    11.00000    0.01349    0.01574 =
         0.01462    0.00412    0.00244    0.00296
C39   2    0.409144    0.514664    0.674963    11.00000    0.01565    0.01352 =
         0.02057    0.00425    0.00332   -0.00051
AFIX  43
H39   3    0.483084    0.554180    0.705885    11.00000   -1.20000
AFIX   0
C40   2    0.353736    0.512449    0.598876    11.00000    0.01938    0.01575 =
         0.02278    0.00968    0.00684    0.00128
C41   2    0.243234    0.455857    0.553630    11.00000    0.01879    0.01795 =
         0.01685    0.00778    0.00339    0.00240
AFIX  43
H41   3    0.203595    0.456795    0.502518    11.00000   -1.20000
AFIX   0
C42   2    0.190751    0.398425    0.582321    11.00000    0.01379    0.01315 =
         0.01644    0.00336    0.00175    0.00247
C43   2    0.530125    0.602797    0.594998    11.00000    0.02702    0.04226 =
         0.04306    0.02551    0.00315   -0.01179
AFIX 137
H43A  3    0.558883    0.625880    0.557576    11.00000   -1.50000
H43B  3    0.585628    0.560405    0.604117    11.00000   -1.50000
H43C  3    0.535470    0.648971    0.645607    11.00000   -1.50000
AFIX   0
C44   2    0.412772    0.463806    0.792250    11.00000    0.01647    0.01534 =
         0.01820    0.00627    0.00346    0.00093
AFIX  13
H44   3    0.427722    0.404721    0.789973    11.00000   -1.20000
AFIX   0
C45   2    0.318256    0.492734    0.845822    11.00000    0.01673    0.01765 =
         0.01534    0.00181    0.00114   -0.00317
C46   2    0.318520    0.461786    0.907822    11.00000    0.02708    0.02581 =
         0.01660    0.00580    0.00190   -0.00270
AFIX  43
H46   3    0.377936    0.423468    0.916424    11.00000   -1.20000
AFIX   0
C47   2    0.233292    0.486114    0.957161    11.00000    0.03607    0.03737 =
         0.01822    0.00606    0.00912   -0.00704
AFIX  43
H47   3    0.234459    0.464144    0.998952    11.00000   -1.20000
AFIX   0
C48   2    0.146295    0.542432    0.945729    11.00000    0.02721    0.03604 =
         0.02469   -0.00310    0.01211   -0.00728
AFIX  43
H48   3    0.087403    0.558801    0.979197    11.00000   -1.20000
AFIX   0
C49   2    0.146377    0.574434    0.885025    11.00000    0.01796    0.02929 =
         0.02894    0.00166    0.00482    0.00102
AFIX  43
H49   3    0.088055    0.613656    0.877287    11.00000   -1.20000
AFIX   0
C50   2    0.231366    0.549541    0.835193    11.00000    0.01808    0.02506 =
         0.01879    0.00431    0.00272   -0.00157
AFIX  43
H50   3    0.229966    0.571623    0.793456    11.00000   -1.20000
AFIX   0
C51   2    0.543822    0.519117    0.829037    11.00000    0.01633    0.01919 =
         0.01455    0.00622    0.00093   -0.00090
C52   2    0.551014    0.606209    0.869721    11.00000    0.01730    0.02467 =
         0.03352    0.00110    0.00407    0.00246
AFIX  43
H52   3    0.473939    0.631124    0.876634    11.00000   -1.20000
AFIX   0
C53   2    0.669876    0.657191    0.900382    11.00000    0.02572    0.02161 =
         0.03243   -0.00411    0.00342   -0.00344
AFIX  43
H53   3    0.673307    0.716439    0.928087    11.00000   -1.20000
AFIX   0
C54   2    0.782561    0.621924    0.890644    11.00000    0.02079    0.02937 =
         0.02332    0.00384    0.00020   -0.00572
AFIX  43
H54   3    0.863492    0.656793    0.911230    11.00000   -1.20000
AFIX   0
C55   2    0.777110    0.535687    0.850825    11.00000    0.01602    0.03142 =
         0.03129    0.00738    0.00463    0.00279
AFIX  43
H55   3    0.854425    0.511091    0.843911    11.00000   -1.20000
AFIX   0
C56   2    0.657963    0.484583    0.820697    11.00000    0.02317    0.01864 =
         0.02200    0.00449    0.00344    0.00219
AFIX  43
H56   3    0.655210    0.425170    0.794054    11.00000   -1.20000
AFIX   0
C57   2    0.069026    0.336730    0.533039    11.00000    0.01646    0.01425 =
         0.01991    0.00714   -0.00219   -0.00210
AFIX  13
H57   3    0.085787    0.279480    0.535674    11.00000   -1.20000
AFIX   0
C58   2   -0.046084    0.361154    0.569839    11.00000    0.01684    0.01761 =
         0.01494    0.00590   -0.00262   -0.00007
C59   2   -0.130869    0.298646    0.575831    11.00000    0.02146    0.01677 =
         0.02142    0.00675   -0.00076   -0.00093
AFIX  43
H59   3   -0.115616    0.240802    0.557416    11.00000   -1.20000
AFIX   0
C60   2   -0.236852    0.319948    0.608276    11.00000    0.01908    0.02882 =
         0.02730    0.01198    0.00160   -0.00304
AFIX  43
H60   3   -0.292963    0.276898    0.612675    11.00000   -1.20000
AFIX   0
C61   2   -0.261149    0.403994    0.634334    11.00000    0.01903    0.03135 =
         0.02513    0.00951    0.00486    0.00395
AFIX  43
H61   3   -0.335145    0.418490    0.655188    11.00000   -1.20000
AFIX   0
C62   2   -0.176962    0.466635    0.629781    11.00000    0.02300    0.02232 =
         0.02507    0.00806    0.00139    0.00472
AFIX  43
H62   3   -0.192258    0.524428    0.648818    11.00000   -1.20000
AFIX   0
C63   2   -0.070411    0.445717    0.597642    11.00000    0.02015    0.01755 =
         0.02252    0.00874    0.00030   -0.00047
AFIX  43
H63   3   -0.013590    0.489238    0.594528    11.00000   -1.20000
AFIX   0
C64   2    0.037436    0.327196    0.444846    11.00000    0.02438    0.01155 =
         0.01942    0.00413   -0.00093   -0.00382
C65   2   -0.079353    0.346022    0.407200    11.00000    0.02881    0.01730 =
         0.02212    0.00608   -0.00253   -0.00214
AFIX  43
H65   3   -0.141946    0.366700    0.436922    11.00000   -1.20000
AFIX   0
C66   2   -0.104557    0.334677    0.326459    11.00000    0.04302    0.02548 =
         0.02628    0.00802   -0.00584    0.00080
AFIX  43
H66   3   -0.184267    0.347695    0.301492    11.00000   -1.20000
AFIX   0
C67   2   -0.015143    0.304802    0.282519    11.00000    0.06318    0.02957 =
         0.01576    0.00657   -0.00222   -0.00330
AFIX  43
H67   3   -0.032963    0.297629    0.227515    11.00000   -1.20000
AFIX   0
C68   2    0.101472    0.285057    0.318555    11.00000    0.05356    0.02640 =
         0.02360    0.00387    0.01185    0.00146
AFIX  43
H68   3    0.163168    0.264011    0.288226    11.00000   -1.20000
AFIX   0
C69   2    0.127196    0.296333    0.399350    11.00000    0.03400    0.02111 =
         0.02136    0.00567    0.00454    0.00050
AFIX  43
H69   3    0.206859    0.282864    0.423896    11.00000   -1.20000
AFIX   0
C70   2    0.470762   -0.223684    0.782407    10.75000    0.20196    0.11559 =
         0.10993    0.05750    0.03451    0.01140
AFIX 137
H70A  3    0.429168   -0.246009    0.816018    10.75000   -1.50000
H70B  3    0.541301   -0.256669    0.768128    10.75000   -1.50000
H70C  3    0.407092   -0.228182    0.733870    10.75000   -1.50000
AFIX   0
C71   2    0.524299   -0.131473    0.827437    10.75000    0.20196    0.11559 =
         0.10993    0.05750    0.03451    0.01140
AFIX  23
H71A  3    0.528969   -0.116592    0.885107    10.75000   -1.20000
H71B  3    0.470306   -0.093343    0.807265    10.75000   -1.20000
AFIX   0
C72   2    0.659801   -0.125071    0.811457    10.75000    0.20196    0.11559 =
         0.10993    0.05750    0.03451    0.01140
AFIX  23
H72A  3    0.712492   -0.154278    0.843483    10.75000   -1.20000
H72B  3    0.650603   -0.160990    0.755020    10.75000   -1.20000
AFIX   0
C73   2    0.742628   -0.045560    0.823387    10.75000    0.20196    0.11559 =
         0.10993    0.05750    0.03451    0.01140
AFIX  23
H73A  3    0.689329   -0.015264    0.792772    10.75000   -1.20000
H73B  3    0.754793   -0.010334    0.880280    10.75000   -1.20000
AFIX   0

C74   2    0.864574   -0.041540    0.806283    10.75000    0.20196    0.11559 =
         0.10993    0.05750    0.03451    0.01140
AFIX  23
H74A  3    0.895536    0.017844    0.813892    10.75000   -1.20000
H74B  3    0.859639   -0.077154    0.750245    10.75000   -1.20000
AFIX   0
C75   2    0.957668   -0.073898    0.862462    10.75000    0.20196    0.11559 =
         0.10993    0.05750    0.03451    0.01140
AFIX  23
H75A  3    0.964183   -0.037184    0.918365    10.75000   -1.20000
H75B  3    0.924758   -0.132550    0.856058    10.75000   -1.20000
AFIX   0
C76   2    1.082915   -0.072911    0.844414    10.75000    0.20196    0.11559 =
         0.10993    0.05750    0.03451    0.01140
AFIX  23
H76A  3    1.076771   -0.114753    0.790534    10.75000   -1.20000
H76B  3    1.108970   -0.015923    0.843442    10.75000   -1.20000
AFIX   0

C77   2    1.177964   -0.091657    0.898334    10.75000    0.20196    0.11559 =
         0.10993    0.05750    0.03451    0.01140
AFIX  23
H77A  3    1.177843   -0.153704    0.886168    10.75000   -1.20000
H77B  3    1.170607   -0.064042    0.953991    10.75000   -1.20000
AFIX   0
C78   2    1.287236   -0.054667    0.882499    10.75000    0.20196    0.11559 =
         0.10993    0.05750    0.03451    0.01140
AFIX  23
H78A  3    1.264462   -0.020199    0.848118    10.75000   -1.20000
H78B  3    1.353029   -0.021487    0.931336    10.75000   -1.20000
AFIX   0
C79   2    1.321102   -0.133555    0.842377    10.75000    0.20196    0.11559 =
         0.10993    0.05750    0.03451    0.01140
AFIX  33
H79A  3    1.399356   -0.125615    0.823808    10.75000   -1.50000
H79B  3    1.337470   -0.165987    0.878429    10.75000   -1.50000
H79C  3    1.250371   -0.164720    0.796589    10.75000   -1.50000
AFIX   0
HKLF 4

REM  mo_rsb_ni_0m_b_a.res in P-1
REM R1 =  0.0545 for    9561 Fo > 4sig(Fo)  and  0.0667 for all   11445 data
REM    706 parameters refined using     18 restraints

END

WGHT      0.0728      4.2534

REM Highest difference peak  1.363,  deepest hole -1.051,  1-sigma level  0.076
Q1    1   0.4263 -0.1854  0.8087  11.00000  0.05    0.84
Q2    1   1.2170 -0.1097  0.8915  11.00000  0.05    0.69
Q3    1   0.8826 -0.0957  0.8584  11.00000  0.05    0.62
Q4    1   0.7612 -0.0087  0.8260  11.00000  0.05    0.59
Q5    1   0.7893 -0.0838  0.8595  11.00000  0.05    0.59
Q6    1   0.6283 -0.2251  0.7953  11.00000  0.05    0.56
Q7    1   0.6502 -0.0938  0.8700  11.00000  0.05    0.52
Q8    1   0.1417  0.0941  0.4686  11.00000  0.05    0.50
Q9    1   0.7787 -0.0882  0.7967  11.00000  0.05    0.47
Q10   1   0.3433  0.2192  0.5418  11.00000  0.05    0.40
Q11   1   0.5014  0.1352  0.6942  11.00000  0.05    0.37
Q12   1   0.2525  0.1964  0.5902  11.00000  0.05    0.37
Q13   1   0.6665 -0.1568  0.8096  11.00000  0.05    0.37
Q14   1   0.1745  0.1439  0.5478  11.00000  0.05    0.36
Q15   1   0.4536  0.1622  0.7763  11.00000  0.05    0.34
Q16   1   0.0068  0.3513  0.5488  11.00000  0.05    0.33
Q17   1   0.5544 -0.1866  0.7721  11.00000  0.05    0.31
Q18   1   0.1035  0.3058  0.8032  11.00000  0.05    0.30
Q19   1   0.4201  0.3230  0.7574  11.00000  0.05    0.30
Q20   1   0.3118  0.1839  0.4635  11.00000  0.05    0.29
;
_shelx_res_checksum              69275
loop_
_space_group_symop_operation_xyz
'x, y, z'
'-x, -y, -z'
loop_
_atom_site_label
_atom_site_type_symbol
_atom_site_fract_x
_atom_site_fract_y
_atom_site_fract_z
_atom_site_U_iso_or_equiv
_atom_site_adp_type
_atom_site_occupancy
_atom_site_site_symmetry_order
_atom_site_calc_flag
_atom_site_refinement_flags_posn
_atom_site_refinement_flags_adp
_atom_site_refinement_flags_occupancy
_atom_site_disorder_assembly
_atom_site_disorder_group
Ni1 Ni 0.29560(3) 0.24333(2) 0.69686(2) 0.01405(11) Uani 1 1 d . . . . .
P1 P 0.42083(6) 0.14865(4) 0.71769(4) 0.01498(15) Uani 1 1 d . . . . .
O1 O 0.24335(18) 0.24337(12) 0.79083(11) 0.0186(4) Uani 1 1 d . . . . .
O2 O 0.39957(19) 0.56365(13) 0.56250(12) 0.0256(5) Uani 1 1 d . . . . .
N1 N 0.2034(2) 0.33821(13) 0.69152(12) 0.0147(4) Uani 1 1 d . . . . .
C1 C 0.3266(3) 0.21847(17) 0.59298(16) 0.0201(6) Uani 1 1 d . . . . .
C2 C 0.4311(3) 0.26083(18) 0.57768(17) 0.0225(6) Uani 1 1 d . . . . .
H2 H 0.4855 0.3062 0.6201 0.027 Uiso 1 1 calc R U . . .
C3 C 0.4560(3) 0.23765(19) 0.50205(18) 0.0265(6) Uani 1 1 d . . . . .
H3 H 0.5272 0.2665 0.4932 0.032 Uiso 1 1 calc R U . . .
C4 C 0.3758(3) 0.1719(2) 0.43940(18) 0.0274(7) Uani 1 1 d . . . . .
H4 H 0.3935 0.1548 0.3879 0.033 Uiso 1 1 calc R U . . .
C5 C 0.2705(3) 0.13139(19) 0.45216(17) 0.0268(6) Uani 1 1 d . . . . .
H5 H 0.2151 0.0874 0.4089 0.032 Uiso 1 1 calc R U . . .
C6 C 0.2442(3) 0.15446(18) 0.52834(17) 0.0231(6) Uani 1 1 d . . . . .
C7 C 0.1277(3) 0.1090(2) 0.53892(18) 0.0275(7) Uani 1 1 d . . . . .
H7A H 0.0561 0.0987 0.4925 0.041 Uiso 1 1 calc R U . . .
H7B H 0.1026 0.1442 0.5870 0.041 Uiso 1 1 calc R U . . .
H7C H 0.1486 0.0546 0.5441 0.041 Uiso 1 1 calc R U . . .
C8 C 0.5658(3) 0.12865(16) 0.67815(16) 0.0175(5) Uani 1 1 d . . . . .
C9 C 0.5554(3) 0.09788(17) 0.59555(17) 0.0204(6) Uani 1 1 d . . . . .
H9 H 0.4727 0.0874 0.5602 0.024 Uiso 1 1 calc R U . . .
C10 C 0.6646(3) 0.08267(18) 0.56521(18) 0.0251(6) Uani 1 1 d . . . . .
H10 H 0.6562 0.0618 0.5092 0.030 Uiso 1 1 calc R U . . .
C11 C 0.7863(3) 0.09769(18) 0.61593(18) 0.0252(6) Uani 1 1 d . . . . .
H11 H 0.8609 0.0872 0.5948 0.030 Uiso 1 1 calc R U . . .
C12 C 0.7980(3) 0.12800(19) 0.69748(18) 0.0267(6) Uani 1 1 d . . . . .
H12 H 0.8810 0.1386 0.7324 0.032 Uiso 1 1 calc R U . . .
C13 C 0.6889(3) 0.14307(18) 0.72862(17) 0.0234(6) Uani 1 1 d . . . . .
H13 H 0.6980 0.1633 0.7847 0.028 Uiso 1 1 calc R U . . .
C14 C 0.3295(3) 0.04335(17) 0.68721(16) 0.0187(6) Uani 1 1 d . . . . .
C15 C 0.3788(3) -0.03182(17) 0.65298(17) 0.0234(6) Uani 1 1 d . . . . .
H15 H 0.4645 -0.0301 0.6456 0.028 Uiso 1 1 calc R U . . .
C16 C 0.3024(3) -0.11008(19) 0.62938(19) 0.0312(7) Uani 1 1 d . . . . .
H16 H 0.3360 -0.1613 0.6053 0.037 Uiso 1 1 calc R U . . .
C17 C 0.1784(3) -0.1133(2) 0.6410(2) 0.0358(8) Uani 1 1 d . . . . .
H17 H 0.1270 -0.1666 0.6250 0.043 Uiso 1 1 calc R U . . .
C18 C 0.1287(3) -0.0387(2) 0.6759(2) 0.0332(7) Uani 1 1 d . . . . .
H18 H 0.0433 -0.0409 0.6839 0.040 Uiso 1 1 calc R U . . .
C19 C 0.2041(3) 0.03955(19) 0.69934(18) 0.0269(6) Uani 1 1 d . . . . .
H19 H 0.1701 0.0905 0.7237 0.032 Uiso 1 1 calc R U . . .
C20 C 0.4842(2) 0.17571(17) 0.82483(16) 0.0177(5) Uani 1 1 d . . . . .
C21 C 0.4920(3) 0.11481(19) 0.86109(17) 0.0269(6) Uani 1 1 d . . . . .
H21 H 0.4629 0.0567 0.8301 0.032 Uiso 1 1 calc R U . . .
C22 C 0.5426(3) 0.1386(2) 0.94315(19) 0.0339(7) Uani 1 1 d . . . . .
H22 H 0.5480 0.0966 0.9677 0.041 Uiso 1 1 calc R U . . .
C23 C 0.5846(3) 0.2230(2) 0.98853(18) 0.0318(7) Uani 1 1 d . . . . .
H23 H 0.6184 0.2391 1.0443 0.038 Uiso 1 1 calc R U . . .
C24 C 0.5773(3) 0.28394(19) 0.95280(17) 0.0258(6) Uani 1 1 d . . . . .
H24 H 0.6065 0.3419 0.9841 0.031 Uiso 1 1 calc R U . . .
C25 C 0.5275(3) 0.26097(18) 0.87162(17) 0.0212(6) Uani 1 1 d . . . . .
H25 H 0.5227 0.3033 0.8475 0.025 Uiso 1 1 calc R U . . .
C26 C 0.1095(2) 0.35917(16) 0.72703(15) 0.0154(5) Uani 1 1 d . . . . .
H26 H 0.0679 0.4057 0.7195 0.018 Uiso 1 1 calc R U . . .
C27 C 0.0620(3) 0.31999(16) 0.77615(15) 0.0162(5) Uani 1 1 d . . . . .
C28 C -0.0539(3) 0.34485(17) 0.80081(16) 0.0199(6) Uani 1 1 d . . . . .
H28 H -0.1017 0.3813 0.7789 0.024 Uiso 1 1 calc R U . . .
C29 C -0.0977(3) 0.31799(18) 0.85455(16) 0.0212(6) Uani 1 1 d . . . . .
H29 H -0.1754 0.3353 0.8694 0.025 Uiso 1 1 calc R U . . .
C30 C -0.0267(3) 0.26368(17) 0.88878(16) 0.0200(6) Uani 1 1 d . . . . .
C31 C -0.0711(3) 0.23188(19) 0.94314(17) 0.0259(6) Uani 1 1 d . . . . .
H31 H -0.1497 0.2471 0.9578 0.031 Uiso 1 1 calc R U . . .
C32 C -0.0017(3) 0.1794(2) 0.97478(18) 0.0305(7) Uani 1 1 d . . . . .
H32 H -0.0338 0.1576 1.0102 0.037 Uiso 1 1 calc R U . . .
C33 C 0.1161(3) 0.1575(2) 0.95549(18) 0.0286(7) Uani 1 1 d . . . . .
H33 H 0.1645 0.1224 0.9789 0.034 Uiso 1 1 calc R U . . .
C34 C 0.1617(3) 0.18696(18) 0.90259(16) 0.0222(6) Uani 1 1 d . . . . .
H34 H 0.2412 0.1716 0.8893 0.027 Uiso 1 1 calc R U . . .
C35 C 0.0910(3) 0.23969(17) 0.86799(15) 0.0179(5) Uani 1 1 d . . . . .
C36 C 0.1363(2) 0.26731(16) 0.80903(15) 0.0169(5) Uani 1 1 d . . . . .
C37 C 0.2495(2) 0.39888(15) 0.65904(15) 0.0143(5) Uani 1 1 d . . . . .
C38 C 0.3567(2) 0.45901(16) 0.70641(15) 0.0150(5) Uani 1 1 d . . . . .
C39 C 0.4091(3) 0.51466(16) 0.67496(16) 0.0172(5) Uani 1 1 d . . . . .
H39 H 0.4831 0.5542 0.7059 0.021 Uiso 1 1 calc R U . . .
C40 C 0.3537(3) 0.51245(16) 0.59888(16) 0.0183(5) Uani 1 1 d . . . . .
C41 C 0.2432(3) 0.45586(16) 0.55363(16) 0.0175(5) Uani 1 1 d . . . . .
H41 H 0.2036 0.4568 0.5025 0.021 Uiso 1 1 calc R U . . .
C42 C 0.1908(2) 0.39843(16) 0.58232(15) 0.0152(5) Uani 1 1 d . . . . .
C43 C 0.5301(3) 0.6028(2) 0.5950(2) 0.0360(8) Uani 1 1 d . . . . .
H43A H 0.5589 0.6259 0.5576 0.054 Uiso 1 1 calc R U . . .
H43B H 0.5856 0.5604 0.6041 0.054 Uiso 1 1 calc R U . . .
H43C H 0.5355 0.6490 0.6456 0.054 Uiso 1 1 calc R U . . .
C44 C 0.4128(2) 0.46381(16) 0.79225(15) 0.0167(5) Uani 1 1 d . . . . .
H44 H 0.4277 0.4047 0.7900 0.020 Uiso 1 1 calc R U . . .
C45 C 0.3183(3) 0.49273(17) 0.84582(16) 0.0181(5) Uani 1 1 d . . . . .
C46 C 0.3185(3) 0.46179(19) 0.90782(16) 0.0242(6) Uani 1 1 d . . . . .
H46 H 0.3779 0.4235 0.9164 0.029 Uiso 1 1 calc R U . . .
C47 C 0.2333(3) 0.4861(2) 0.95716(18) 0.0314(7) Uani 1 1 d . . . . .
H47 H 0.2345 0.4641 0.9990 0.038 Uiso 1 1 calc R U . . .
C48 C 0.1463(3) 0.5424(2) 0.94573(19) 0.0323(7) Uani 1 1 d . . . . .
H48 H 0.0874 0.5588 0.9792 0.039 Uiso 1 1 calc R U . . .
C49 C 0.1464(3) 0.5744(2) 0.88502(18) 0.0277(7) Uani 1 1 d . . . . .
H49 H 0.0881 0.6137 0.8773 0.033 Uiso 1 1 calc R U . . .
C50 C 0.2314(3) 0.54954(18) 0.83519(17) 0.0219(6) Uani 1 1 d . . . . .
H50 H 0.2300 0.5716 0.7935 0.026 Uiso 1 1 calc R U . . .
C51 C 0.5438(3) 0.51912(17) 0.82904(15) 0.0171(5) Uani 1 1 d . . . . .
C52 C 0.5510(3) 0.60621(19) 0.86972(19) 0.0277(7) Uani 1 1 d . . . . .
H52 H 0.4739 0.6311 0.8766 0.033 Uiso 1 1 calc R U . . .
C53 C 0.6699(3) 0.6572(2) 0.90038(19) 0.0308(7) Uani 1 1 d . . . . .
H53 H 0.6733 0.7164 0.9281 0.037 Uiso 1 1 calc R U . . .
C54 C 0.7826(3) 0.62192(19) 0.89064(17) 0.0269(7) Uani 1 1 d . . . . .
H54 H 0.8635 0.6568 0.9112 0.032 Uiso 1 1 calc R U . . .
C55 C 0.7771(3) 0.5357(2) 0.85082(18) 0.0273(6) Uani 1 1 d . . . . .
H55 H 0.8544 0.5111 0.8439 0.033 Uiso 1 1 calc R U . . .
C56 C 0.6580(3) 0.48458(18) 0.82070(17) 0.0222(6) Uani 1 1 d . . . . .
H56 H 0.6552 0.4252 0.7941 0.027 Uiso 1 1 calc R U . . .
C57 C 0.0690(2) 0.33673(16) 0.53304(16) 0.0177(5) Uani 1 1 d . . . . .
H57 H 0.0858 0.2795 0.5357 0.021 Uiso 1 1 calc R U . . .
C58 C -0.0461(3) 0.36115(17) 0.56984(15) 0.0174(5) Uani 1 1 d . . . . .
C59 C -0.1309(3) 0.29865(17) 0.57583(16) 0.0208(6) Uani 1 1 d . . . . .
H59 H -0.1156 0.2408 0.5574 0.025 Uiso 1 1 calc R U . . .
C60 C -0.2369(3) 0.31995(19) 0.60828(18) 0.0253(6) Uani 1 1 d . . . . .
H60 H -0.2930 0.2769 0.6127 0.030 Uiso 1 1 calc R U . . .
C61 C -0.2611(3) 0.40399(19) 0.63433(17) 0.0252(6) Uani 1 1 d . . . . .
H61 H -0.3351 0.4185 0.6552 0.030 Uiso 1 1 calc R U . . .
C62 C -0.1770(3) 0.46664(19) 0.62978(17) 0.0241(6) Uani 1 1 d . . . . .
H62 H -0.1923 0.5244 0.6488 0.029 Uiso 1 1 calc R U . . .
C63 C -0.0704(3) 0.44572(17) 0.59764(16) 0.0204(6) Uani 1 1 d . . . . .
H63 H -0.0136 0.4892 0.5945 0.024 Uiso 1 1 calc R U . . .
C64 C 0.0374(3) 0.32720(16) 0.44485(16) 0.0199(6) Uani 1 1 d . . . . .
C65 C -0.0794(3) 0.34602(17) 0.40720(17) 0.0244(6) Uani 1 1 d . . . . .
H65 H -0.1419 0.3667 0.4369 0.029 Uiso 1 1 calc R U . . .
C66 C -0.1046(3) 0.3347(2) 0.32646(19) 0.0340(8) Uani 1 1 d . . . . .
H66 H -0.1843 0.3477 0.3015 0.041 Uiso 1 1 calc R U . . .
C67 C -0.0151(4) 0.3048(2) 0.28252(19) 0.0385(8) Uani 1 1 d . . . . .
H67 H -0.0330 0.2976 0.2275 0.046 Uiso 1 1 calc R U . . .
C68 C 0.1015(4) 0.2851(2) 0.31856(19) 0.0354(8) Uani 1 1 d . . . . .
H68 H 0.1632 0.2640 0.2882 0.043 Uiso 1 1 calc R U . . .
C69 C 0.1272(3) 0.29633(18) 0.39935(17) 0.0263(6) Uani 1 1 d . . . . .
H69 H 0.2069 0.2829 0.4239 0.032 Uiso 1 1 calc R U . . .
C70 C 0.4708(12) -0.2237(6) 0.7824(6) 0.1383(15) Uani 0.75 1 d D . P . .
H70A H 0.4292 -0.2460 0.8160 0.207 Uiso 0.75 1 calc R U P . .
H70B H 0.5413 -0.2567 0.7681 0.207 Uiso 0.75 1 calc R U P . .
H70C H 0.4071 -0.2282 0.7339 0.207 Uiso 0.75 1 calc R U P . .
C71 C 0.5243(12) -0.1315(7) 0.8274(7) 0.1383(15) Uani 0.75 1 d D . P . .
H71A H 0.5290 -0.1166 0.8851 0.166 Uiso 0.75 1 calc R U P . .
H71B H 0.4703 -0.0933 0.8073 0.166 Uiso 0.75 1 calc R U P . .
C72 C 0.6598(12) -0.1251(7) 0.8115(7) 0.1383(15) Uani 0.75 1 d D . P . .
H72A H 0.7125 -0.1543 0.8435 0.166 Uiso 0.75 1 calc R U P . .
H72B H 0.6506 -0.1610 0.7550 0.166 Uiso 0.75 1 calc R U P . .
C73 C 0.7426(12) -0.0456(7) 0.8234(7) 0.1383(15) Uani 0.75 1 d D . P . .
H73A H 0.6893 -0.0153 0.7928 0.166 Uiso 0.75 1 calc R U P . .
H73B H 0.7548 -0.0103 0.8803 0.166 Uiso 0.75 1 calc R U P . .
C74 C 0.8646(12) -0.0415(7) 0.8063(7) 0.1383(15) Uani 0.75 1 d D . P . .
H74A H 0.8955 0.0178 0.8139 0.166 Uiso 0.75 1 calc R U P . .
H74B H 0.8596 -0.0772 0.7502 0.166 Uiso 0.75 1 calc R U P . .
C75 C 0.9577(11) -0.0739(8) 0.8625(7) 0.1383(15) Uani 0.75 1 d D . P . .
H75A H 0.9642 -0.0372 0.9184 0.166 Uiso 0.75 1 calc R U P . .
H75B H 0.9248 -0.1325 0.8561 0.166 Uiso 0.75 1 calc R U P . .
C76 C 1.0829(11) -0.0729(8) 0.8444(7) 0.1383(15) Uani 0.75 1 d D . P . .
H76A H 1.0768 -0.1148 0.7905 0.166 Uiso 0.75 1 calc R U P . .
H76B H 1.1090 -0.0159 0.8434 0.166 Uiso 0.75 1 calc R U P . .
C77 C 1.1780(11) -0.0917(8) 0.8983(7) 0.1383(15) Uani 0.75 1 d D . P . .
H77A H 1.1778 -0.1537 0.8862 0.166 Uiso 0.75 1 calc R U P . .
H77B H 1.1706 -0.0640 0.9540 0.166 Uiso 0.75 1 calc R U P . .
C78 C 1.2872(12) -0.0547(7) 0.8825(7) 0.1383(15) Uani 0.75 1 d D . P . .
H78A H 1.2645 -0.0202 0.8481 0.166 Uiso 0.75 1 calc R U P . .
H78B H 1.3530 -0.0215 0.9313 0.166 Uiso 0.75 1 calc R U P . .
C79 C 1.3211(13) -0.1336(7) 0.8424(6) 0.1383(15) Uani 0.75 1 d D . P . .
H79A H 1.3994 -0.1256 0.8238 0.207 Uiso 0.75 1 calc R U P . .
H79B H 1.3375 -0.1660 0.8784 0.207 Uiso 0.75 1 calc R U P . .
H79C H 1.2504 -0.1647 0.7966 0.207 Uiso 0.75 1 calc R U P . .
loop_
_atom_site_aniso_label
_atom_site_aniso_U_11
_atom_site_aniso_U_22
_atom_site_aniso_U_33
_atom_site_aniso_U_23
_atom_site_aniso_U_13
_atom_site_aniso_U_12
Ni1 0.01457(18) 0.01267(18) 0.01391(18) 0.00406(13) 0.00235(13) 0.00007(12)
P1 0.0154(3) 0.0128(3) 0.0148(3) 0.0036(3) 0.0014(3) -0.0003(2)
O1 0.0165(9) 0.0236(10) 0.0184(9) 0.0098(8) 0.0050(7) 0.0041(8)
O2 0.0217(10) 0.0303(11) 0.0289(11) 0.0195(9) 0.0009(8) -0.0064(8)
N1 0.0131(11) 0.0149(10) 0.0143(11) 0.0046(9) 0.0010(8) -0.0021(8)
C1 0.0251(14) 0.0167(13) 0.0183(13) 0.0057(11) 0.0039(11) 0.0087(11)
C2 0.0234(15) 0.0236(14) 0.0212(14) 0.0083(12) 0.0052(11) 0.0076(11)
C3 0.0240(15) 0.0286(16) 0.0324(16) 0.0152(13) 0.0097(13) 0.0067(12)
C4 0.0325(17) 0.0314(16) 0.0199(15) 0.0103(13) 0.0052(12) 0.0116(13)
C5 0.0344(17) 0.0239(15) 0.0200(14) 0.0057(12) 0.0034(12) 0.0103(13)
C6 0.0263(15) 0.0190(14) 0.0214(14) 0.0049(11) 0.0029(12) 0.0052(11)
C7 0.0257(16) 0.0277(15) 0.0242(15) 0.0066(12) -0.0001(12) 0.0013(12)
C8 0.0187(13) 0.0125(12) 0.0212(14) 0.0058(10) 0.0047(11) 0.0013(10)
C9 0.0222(14) 0.0155(13) 0.0210(14) 0.0047(11) 0.0022(11) 0.0028(10)
C10 0.0351(17) 0.0185(14) 0.0237(15) 0.0067(12) 0.0119(13) 0.0060(12)
C11 0.0263(15) 0.0188(14) 0.0312(16) 0.0051(12) 0.0141(13) 0.0020(11)
C12 0.0179(14) 0.0266(15) 0.0285(16) 0.0019(12) 0.0038(12) -0.0016(11)
C13 0.0208(14) 0.0237(14) 0.0215(14) 0.0029(12) 0.0047(11) -0.0008(11)
C14 0.0207(14) 0.0173(13) 0.0156(13) 0.0063(11) -0.0014(10) -0.0033(10)
C15 0.0322(16) 0.0167(13) 0.0203(14) 0.0060(11) 0.0050(12) -0.0003(12)
C16 0.048(2) 0.0141(14) 0.0276(16) 0.0034(12) 0.0088(14) -0.0009(13)
C17 0.047(2) 0.0200(15) 0.0317(17) 0.0070(13) -0.0017(15) -0.0133(14)
C18 0.0274(16) 0.0276(16) 0.0426(19) 0.0144(14) 0.0020(14) -0.0072(13)
C19 0.0239(15) 0.0214(14) 0.0317(16) 0.0075(12) 0.0020(13) -0.0009(12)
C20 0.0133(12) 0.0194(13) 0.0181(13) 0.0047(11) 0.0015(10) 0.0026(10)
C21 0.0352(17) 0.0221(14) 0.0202(15) 0.0060(12) 0.0017(12) 0.0030(12)
C22 0.045(2) 0.0352(18) 0.0233(16) 0.0143(14) 0.0036(14) 0.0083(15)
C23 0.0308(17) 0.0422(19) 0.0168(14) 0.0046(13) 0.0014(12) 0.0099(14)
C24 0.0197(14) 0.0272(15) 0.0192(14) -0.0042(12) 0.0006(11) 0.0023(11)
C25 0.0167(13) 0.0209(14) 0.0234(14) 0.0043(11) 0.0046(11) 0.0025(11)
C26 0.0139(12) 0.0135(12) 0.0152(12) 0.0031(10) -0.0011(10) 0.0005(9)
C27 0.0165(13) 0.0159(12) 0.0129(12) 0.0021(10) 0.0015(10) -0.0007(10)
C28 0.0177(13) 0.0183(13) 0.0217(14) 0.0048(11) 0.0038(11) 0.0009(10)
C29 0.0166(13) 0.0231(14) 0.0213(14) 0.0033(11) 0.0063(11) -0.0004(11)
C30 0.0219(14) 0.0190(13) 0.0136(13) 0.0006(10) 0.0021(11) -0.0054(11)
C31 0.0273(16) 0.0283(15) 0.0212(14) 0.0059(12) 0.0096(12) -0.0035(12)
C32 0.0373(18) 0.0338(17) 0.0232(15) 0.0133(13) 0.0097(13) -0.0062(14)
C33 0.0353(17) 0.0272(16) 0.0255(15) 0.0130(13) 0.0062(13) 0.0002(13)
C34 0.0236(14) 0.0218(14) 0.0198(14) 0.0075(11) 0.0021(11) -0.0004(11)
C35 0.0174(13) 0.0188(13) 0.0149(13) 0.0051(10) 0.0004(10) -0.0038(10)
C36 0.0157(13) 0.0159(12) 0.0152(13) 0.0025(10) 0.0011(10) -0.0031(10)
C37 0.0152(12) 0.0115(12) 0.0155(12) 0.0039(10) 0.0032(10) 0.0020(9)
C38 0.0135(12) 0.0157(12) 0.0146(12) 0.0041(10) 0.0024(10) 0.0030(10)
C39 0.0157(13) 0.0135(12) 0.0206(13) 0.0042(10) 0.0033(10) -0.0005(10)
C40 0.0194(13) 0.0157(13) 0.0228(14) 0.0097(11) 0.0068(11) 0.0013(10)
C41 0.0188(13) 0.0179(13) 0.0168(13) 0.0078(11) 0.0034(10) 0.0024(10)
C42 0.0138(12) 0.0132(12) 0.0164(13) 0.0034(10) 0.0018(10) 0.0025(10)
C43 0.0270(17) 0.0423(19) 0.0431(19) 0.0255(16) 0.0032(14) -0.0118(14)
C44 0.0165(13) 0.0153(12) 0.0182(13) 0.0063(10) 0.0035(10) 0.0009(10)
C45 0.0167(13) 0.0177(13) 0.0153(13) 0.0018(10) 0.0011(10) -0.0032(10)
C46 0.0271(15) 0.0258(15) 0.0166(14) 0.0058(12) 0.0019(11) -0.0027(12)
C47 0.0361(18) 0.0374(18) 0.0182(15) 0.0061(13) 0.0091(13) -0.0070(14)
C48 0.0272(16) 0.0360(18) 0.0247(16) -0.0031(13) 0.0121(13) -0.0073(13)
C49 0.0180(14) 0.0293(16) 0.0289(16) 0.0017(13) 0.0048(12) 0.0010(12)
C50 0.0181(14) 0.0251(14) 0.0188(14) 0.0043(11) 0.0027(11) -0.0016(11)
C51 0.0163(13) 0.0192(13) 0.0146(13) 0.0062(10) 0.0009(10) -0.0009(10)
C52 0.0173(14) 0.0247(15) 0.0335(17) 0.0011(13) 0.0041(12) 0.0025(11)
C53 0.0257(16) 0.0216(15) 0.0324(17) -0.0041(13) 0.0034(13) -0.0034(12)
C54 0.0208(15) 0.0294(16) 0.0233(15) 0.0038(12) 0.0002(12) -0.0057(12)
C55 0.0160(14) 0.0314(16) 0.0313(16) 0.0074(13) 0.0046(12) 0.0028(12)
C56 0.0232(14) 0.0186(14) 0.0220(14) 0.0045(11) 0.0034(11) 0.0022(11)
C57 0.0165(13) 0.0143(12) 0.0199(13) 0.0071(11) -0.0022(10) -0.0021(10)
C58 0.0168(13) 0.0176(13) 0.0149(13) 0.0059(10) -0.0026(10) -0.0001(10)
C59 0.0215(14) 0.0168(13) 0.0214(14) 0.0067(11) -0.0008(11) -0.0009(11)
C60 0.0191(14) 0.0288(15) 0.0273(15) 0.0120(13) 0.0016(12) -0.0030(12)
C61 0.0190(14) 0.0313(16) 0.0251(15) 0.0095(13) 0.0049(12) 0.0040(12)
C62 0.0230(15) 0.0223(14) 0.0251(15) 0.0081(12) 0.0014(12) 0.0047(11)
C63 0.0201(14) 0.0176(13) 0.0225(14) 0.0087(11) 0.0003(11) -0.0005(10)
C64 0.0244(14) 0.0116(12) 0.0194(14) 0.0041(10) -0.0009(11) -0.0038(10)
C65 0.0288(16) 0.0173(13) 0.0221(14) 0.0061(11) -0.0025(12) -0.0021(11)
C66 0.0430(19) 0.0255(16) 0.0263(16) 0.0080(13) -0.0058(14) 0.0008(14)
C67 0.063(2) 0.0296(17) 0.0158(15) 0.0066(13) -0.0022(15) -0.0033(16)
C68 0.054(2) 0.0264(16) 0.0236(16) 0.0039(13) 0.0119(15) 0.0015(15)
C69 0.0340(17) 0.0211(14) 0.0214(15) 0.0057(12) 0.0045(12) 0.0005(12)
C70 0.202(5) 0.116(3) 0.110(3) 0.057(2) 0.035(3) 0.011(3)
C71 0.202(5) 0.116(3) 0.110(3) 0.057(2) 0.035(3) 0.011(3)
C72 0.202(5) 0.116(3) 0.110(3) 0.057(2) 0.035(3) 0.011(3)
C73 0.202(5) 0.116(3) 0.110(3) 0.057(2) 0.035(3) 0.011(3)
C74 0.202(5) 0.116(3) 0.110(3) 0.057(2) 0.035(3) 0.011(3)
C75 0.202(5) 0.116(3) 0.110(3) 0.057(2) 0.035(3) 0.011(3)
C76 0.202(5) 0.116(3) 0.110(3) 0.057(2) 0.035(3) 0.011(3)
C77 0.202(5) 0.116(3) 0.110(3) 0.057(2) 0.035(3) 0.011(3)
C78 0.202(5) 0.116(3) 0.110(3) 0.057(2) 0.035(3) 0.011(3)
C79 0.202(5) 0.116(3) 0.110(3) 0.057(2) 0.035(3) 0.011(3)
loop_
_atom_type_symbol
_atom_type_description
_atom_type_scat_dispersion_real
_atom_type_scat_dispersion_imag
_atom_type_scat_source
Ni Ni 0.3393 1.1124 'International Tables Vol C Tables 4.2.6.8 and 6.1.1.4'
C C 0.0033 0.0016 'International Tables Vol C Tables 4.2.6.8 and 6.1.1.4'
H H 0.0000 0.0000 'International Tables Vol C Tables 4.2.6.8 and 6.1.1.4'
O O 0.0106 0.0060 'International Tables Vol C Tables 4.2.6.8 and 6.1.1.4'
N N 0.0061 0.0033 'International Tables Vol C Tables 4.2.6.8 and 6.1.1.4'
P P 0.1023 0.0942 'International Tables Vol C Tables 4.2.6.8 and 6.1.1.4'
loop_
_geom_angle_atom_site_label_1
_geom_angle_atom_site_label_2
_geom_angle_atom_site_label_3
_geom_angle
_geom_angle_site_symmetry_1
_geom_angle_site_symmetry_3
_geom_angle_publ_flag
C1 Ni1 O1 167.15(10) . . ?
C1 Ni1 N1 93.58(10) . . ?
O1 Ni1 N1 92.41(9) . . ?
C1 Ni1 P1 90.40(8) . . ?
O1 Ni1 P1 85.18(6) . . ?
N1 Ni1 P1 171.68(7) . . ?
C14 P1 C20 103.57(12) . . ?
C14 P1 C8 104.59(12) . . ?
C20 P1 C8 102.68(12) . . ?
C14 P1 Ni1 111.76(9) . . ?
C20 P1 Ni1 109.41(9) . . ?
C8 P1 Ni1 122.90(9) . . ?
C36 O1 Ni1 125.05(17) . . ?
C40 O2 C43 116.7(2) . . ?
C26 N1 C37 115.5(2) . . ?
C26 N1 Ni1 122.50(18) . . ?
C37 N1 Ni1 121.16(16) . . ?
C6 C1 C2 117.9(3) . . ?
C6 C1 Ni1 119.2(2) . . ?
C2 C1 Ni1 122.9(2) . . ?
C3 C2 C1 121.6(3) . . ?
C3 C2 H2 119.2 . . ?
C1 C2 H2 119.2 . . ?
C2 C3 C4 119.6(3) . . ?
C2 C3 H3 120.2 . . ?
C4 C3 H3 120.2 . . ?
C5 C4 C3 120.0(3) . . ?
C5 C4 H4 120.0 . . ?
C3 C4 H4 120.0 . . ?
C4 C5 C6 120.9(3) . . ?
C4 C5 H5 119.6 . . ?
C6 C5 H5 119.6 . . ?
C1 C6 C5 120.0(3) . . ?
C1 C6 C7 121.2(3) . . ?
C5 C6 C7 118.8(3) . . ?
C6 C7 H7A 109.5 . . ?
C6 C7 H7B 109.5 . . ?
H7A C7 H7B 109.5 . . ?
C6 C7 H7C 109.5 . . ?
H7A C7 H7C 109.5 . . ?
H7B C7 H7C 109.5 . . ?
C13 C8 C9 118.4(3) . . ?
C13 C8 P1 121.5(2) . . ?
C9 C8 P1 120.1(2) . . ?
C10 C9 C8 120.5(3) . . ?
C10 C9 H9 119.8 . . ?
C8 C9 H9 119.8 . . ?
C9 C10 C11 120.6(3) . . ?
C9 C10 H10 119.7 . . ?
C11 C10 H10 119.7 . . ?
C12 C11 C10 119.5(3) . . ?
C12 C11 H11 120.3 . . ?
C10 C11 H11 120.3 . . ?
C11 C12 C13 120.4(3) . . ?
C11 C12 H12 119.8 . . ?
C13 C12 H12 119.8 . . ?
C12 C13 C8 120.7(3) . . ?
C12 C13 H13 119.7 . . ?
C8 C13 H13 119.7 . . ?
C15 C14 C19 119.2(3) . . ?
C15 C14 P1 123.2(2) . . ?
C19 C14 P1 117.6(2) . . ?
C14 C15 C16 120.2(3) . . ?
C14 C15 H15 119.9 . . ?
C16 C15 H15 119.9 . . ?
C17 C16 C15 120.3(3) . . ?
C17 C16 H16 119.8 . . ?
C15 C16 H16 119.8 . . ?
C16 C17 C18 120.0(3) . . ?
C16 C17 H17 120.0 . . ?
C18 C17 H17 120.0 . . ?
C17 C18 C19 120.0(3) . . ?
C17 C18 H18 120.0 . . ?
C19 C18 H18 120.0 . . ?
C18 C19 C14 120.3(3) . . ?
C18 C19 H19 119.8 . . ?
C14 C19 H19 119.8 . . ?
C21 C20 C25 119.0(3) . . ?
C21 C20 P1 122.4(2) . . ?
C25 C20 P1 118.6(2) . . ?
C20 C21 C22 120.2(3) . . ?
C20 C21 H21 119.9 . . ?
C22 C21 H21 119.9 . . ?
C23 C22 C21 120.1(3) . . ?
C23 C22 H22 120.0 . . ?
C21 C22 H22 120.0 . . ?
C24 C23 C22 120.0(3) . . ?
C24 C23 H23 120.0 . . ?
C22 C23 H23 120.0 . . ?
C23 C24 C25 120.3(3) . . ?
C23 C24 H24 119.8 . . ?
C25 C24 H24 119.8 . . ?
C24 C25 C20 120.4(3) . . ?
C24 C25 H25 119.8 . . ?
C20 C25 H25 119.8 . . ?
N1 C26 C27 127.1(2) . . ?
N1 C26 H26 116.4 . . ?
C27 C26 H26 116.4 . . ?
C36 C27 C26 121.0(2) . . ?
C36 C27 C28 120.1(2) . . ?
C26 C27 C28 118.4(2) . . ?
C29 C28 C27 122.1(3) . . ?
C29 C28 H28 118.9 . . ?
C27 C28 H28 118.9 . . ?
C28 C29 C30 119.9(3) . . ?
C28 C29 H29 120.1 . . ?
C30 C29 H29 120.1 . . ?
C31 C30 C35 118.3(3) . . ?
C31 C30 C29 121.8(3) . . ?
C35 C30 C29 119.9(2) . . ?
C32 C31 C30 120.7(3) . . ?
C32 C31 H31 119.6 . . ?
C30 C31 H31 119.6 . . ?
C31 C32 C33 120.7(3) . . ?
C31 C32 H32 119.6 . . ?
C33 C32 H32 119.6 . . ?
C34 C33 C32 120.0(3) . . ?
C34 C33 H33 120.0 . . ?
C32 C33 H33 120.0 . . ?
C33 C34 C35 120.4(3) . . ?
C33 C34 H34 119.8 . . ?
C35 C34 H34 119.8 . . ?
C34 C35 C30 119.8(2) . . ?
C34 C35 C36 120.3(3) . . ?
C30 C35 C36 119.9(2) . . ?
O1 C36 C27 123.7(2) . . ?
O1 C36 C35 118.2(2) . . ?
C27 C36 C35 118.1(2) . . ?
C38 C37 C42 120.3(2) . . ?
C38 C37 N1 117.8(2) . . ?
C42 C37 N1 121.9(2) . . ?
C39 C38 C37 119.3(2) . . ?
C39 C38 C44 120.8(2) . . ?
C37 C38 C44 119.8(2) . . ?
C40 C39 C38 120.2(2) . . ?
C40 C39 H39 119.9 . . ?
C38 C39 H39 119.9 . . ?
O2 C40 C39 124.4(2) . . ?
O2 C40 C41 115.3(2) . . ?
C39 C40 C41 120.3(2) . . ?
C42 C41 C40 120.9(2) . . ?
C42 C41 H41 119.6 . . ?
C40 C41 H41 119.6 . . ?
C41 C42 C37 118.9(2) . . ?
C41 C42 C57 121.0(2) . . ?
C37 C42 C57 120.2(2) . . ?
O2 C43 H43A 109.5 . . ?
O2 C43 H43B 109.5 . . ?
H43A C43 H43B 109.5 . . ?
O2 C43 H43C 109.5 . . ?
H43A C43 H43C 109.5 . . ?
H43B C43 H43C 109.5 . . ?
C45 C44 C51 110.7(2) . . ?
C45 C44 C38 112.3(2) . . ?
C51 C44 C38 112.7(2) . . ?
C45 C44 H44 106.9 . . ?
C51 C44 H44 106.9 . . ?
C38 C44 H44 106.9 . . ?
C50 C45 C46 118.3(3) . . ?
C50 C45 C44 122.3(2) . . ?
C46 C45 C44 119.4(2) . . ?
C47 C46 C45 121.0(3) . . ?
C47 C46 H46 119.5 . . ?
C45 C46 H46 119.5 . . ?
C46 C47 C48 120.3(3) . . ?
C46 C47 H47 119.9 . . ?
C48 C47 H47 119.9 . . ?
C49 C48 C47 119.2(3) . . ?
C49 C48 H48 120.4 . . ?
C47 C48 H48 120.4 . . ?
C48 C49 C50 120.4(3) . . ?
C48 C49 H49 119.8 . . ?
C50 C49 H49 119.8 . . ?
C45 C50 C49 120.8(3) . . ?
C45 C50 H50 119.6 . . ?
C49 C50 H50 119.6 . . ?
C56 C51 C52 118.2(2) . . ?
C56 C51 C44 121.0(2) . . ?
C52 C51 C44 120.8(2) . . ?
C53 C52 C51 120.8(3) . . ?
C53 C52 H52 119.6 . . ?
C51 C52 H52 119.6 . . ?
C54 C53 C52 120.2(3) . . ?
C54 C53 H53 119.9 . . ?
C52 C53 H53 119.9 . . ?
C53 C54 C55 119.7(3) . . ?
C53 C54 H54 120.2 . . ?
C55 C54 H54 120.2 . . ?
C54 C55 C56 120.0(3) . . ?
C54 C55 H55 120.0 . . ?
C56 C55 H55 120.0 . . ?
C51 C56 C55 121.1(3) . . ?
C51 C56 H56 119.5 . . ?
C55 C56 H56 119.5 . . ?
C58 C57 C64 111.1(2) . . ?
C58 C57 C42 110.8(2) . . ?
C64 C57 C42 113.8(2) . . ?
C58 C57 H57 106.9 . . ?
C64 C57 H57 106.9 . . ?
C42 C57 H57 106.9 . . ?
C63 C58 C59 118.4(3) . . ?
C63 C58 C57 121.3(2) . . ?
C59 C58 C57 120.3(2) . . ?
C60 C59 C58 120.9(3) . . ?
C60 C59 H59 119.6 . . ?
C58 C59 H59 119.6 . . ?
C59 C60 C61 120.1(3) . . ?
C59 C60 H60 119.9 . . ?
C61 C60 H60 119.9 . . ?
C62 C61 C60 119.6(3) . . ?
C62 C61 H61 120.2 . . ?
C60 C61 H61 120.2 . . ?
C61 C62 C63 120.5(3) . . ?
C61 C62 H62 119.7 . . ?
C63 C62 H62 119.7 . . ?
C62 C63 C58 120.5(3) . . ?
C62 C63 H63 119.8 . . ?
C58 C63 H63 119.8 . . ?
C65 C64 C69 118.4(3) . . ?
C65 C64 C57 122.6(3) . . ?
C69 C64 C57 119.0(2) . . ?
C66 C65 C64 120.4(3) . . ?
C66 C65 H65 119.8 . . ?
C64 C65 H65 119.8 . . ?
C67 C66 C65 120.6(3) . . ?
C67 C66 H66 119.7 . . ?
C65 C66 H66 119.7 . . ?
C66 C67 C68 120.0(3) . . ?
C66 C67 H67 120.0 . . ?
C68 C67 H67 120.0 . . ?
C67 C68 C69 119.6(3) . . ?
C67 C68 H68 120.2 . . ?
C69 C68 H68 120.2 . . ?
C68 C69 C64 120.9(3) . . ?
C68 C69 H69 119.5 . . ?
C64 C69 H69 119.5 . . ?
C71 C70 H70A 109.5 . . ?
C71 C70 H70B 109.5 . . ?
H70A C70 H70B 109.5 . . ?
C71 C70 H70C 109.5 . . ?
H70A C70 H70C 109.5 . . ?
H70B C70 H70C 109.5 . . ?
C70 C71 C72 103.8(9) . . ?
C70 C71 H71A 111.0 . . ?
C72 C71 H71A 111.0 . . ?
C70 C71 H71B 111.0 . . ?
C72 C71 H71B 111.0 . . ?
H71A C71 H71B 109.0 . . ?
C73 C72 C71 126.7(10) . . ?
C73 C72 H72A 105.6 . . ?
C71 C72 H72A 105.6 . . ?
C73 C72 H72B 105.6 . . ?
C71 C72 H72B 105.6 . . ?
H72A C72 H72B 106.1 . . ?
C74 C73 C72 125.6(11) . . ?
C74 C73 H73A 105.9 . . ?
C72 C73 H73A 105.9 . . ?
C74 C73 H73B 105.9 . . ?
C72 C73 H73B 105.9 . . ?
H73A C73 H73B 106.2 . . ?
C73 C74 C75 108.3(9) . . ?
C73 C74 H74A 110.0 . . ?
C75 C74 H74A 110.0 . . ?
C73 C74 H74B 110.0 . . ?
C75 C74 H74B 110.0 . . ?
H74A C74 H74B 108.4 . . ?
C76 C75 C74 109.4(9) . . ?
C76 C75 H75A 109.8 . . ?
C74 C75 H75A 109.8 . . ?
C76 C75 H75B 109.8 . . ?
C74 C75 H75B 109.8 . . ?
H75A C75 H75B 108.2 . . ?
C77 C76 C75 113.6(10) . . ?
C77 C76 H76A 108.8 . . ?
C75 C76 H76A 108.8 . . ?
C77 C76 H76B 108.8 . . ?
C75 C76 H76B 108.8 . . ?
H76A C76 H76B 107.7 . . ?
C76 C77 C78 98.2(9) . . ?
C76 C77 C79 107.3(9) . . ?
C78 C77 C79 43.2(6) . . ?
C76 C77 H77A 112.1 . . ?
C78 C77 H77A 112.1 . . ?
C79 C77 H77A 69.7 . . ?
C76 C77 H77B 112.1 . . ?
C78 C77 H77B 112.1 . . ?
C79 C77 H77B 136.5 . . ?
H77A C77 H77B 109.8 . . ?
C79 C78 C77 92.6(10) . . ?
C79 C78 H78A 113.2 . . ?
C77 C78 H78A 113.2 . . ?
C79 C78 H78B 113.2 . . ?
C77 C78 H78B 113.2 . . ?
H78A C78 H78B 110.5 . . ?
C78 C79 C77 44.3(6) . . ?
C78 C79 H79A 109.5 . . ?
C77 C79 H79A 153.7 . . ?
C78 C79 H79B 109.5 . . ?
C77 C79 H79B 84.8 . . ?
H79A C79 H79B 109.5 . . ?
C78 C79 H79C 109.5 . . ?
C77 C79 H79C 84.8 . . ?
H79A C79 H79C 109.5 . . ?
H79B C79 H79C 109.5 . . ?
loop_
_geom_bond_atom_site_label_1
_geom_bond_atom_site_label_2
_geom_bond_distance
_geom_bond_site_symmetry_2
_geom_bond_publ_flag
Ni1 C1 1.906(3) . ?
Ni1 O1 1.9094(19) . ?
Ni1 N1 1.928(2) . ?
Ni1 P1 2.1993(8) . ?
P1 C14 1.830(3) . ?
P1 C20 1.830(3) . ?
P1 C8 1.832(3) . ?
O1 C36 1.296(3) . ?
O2 C40 1.374(3) . ?
O2 C43 1.428(4) . ?
N1 C26 1.299(3) . ?
N1 C37 1.449(3) . ?
C1 C6 1.405(4) . ?
C1 C2 1.415(4) . ?
C2 C3 1.391(4) . ?
C2 H2 0.9500 . ?
C3 C4 1.393(4) . ?
C3 H3 0.9500 . ?
C4 C5 1.383(5) . ?
C4 H4 0.9500 . ?
C5 C6 1.407(4) . ?
C5 H5 0.9500 . ?
C6 C7 1.504(4) . ?
C7 H7A 0.9800 . ?
C7 H7B 0.9800 . ?
C7 H7C 0.9800 . ?
C8 C13 1.400(4) . ?
C8 C9 1.404(4) . ?
C9 C10 1.385(4) . ?
C9 H9 0.9500 . ?
C10 C11 1.390(4) . ?
C10 H10 0.9500 . ?
C11 C12 1.384(4) . ?
C11 H11 0.9500 . ?
C12 C13 1.391(4) . ?
C12 H12 0.9500 . ?
C13 H13 0.9500 . ?
C14 C15 1.389(4) . ?
C14 C19 1.399(4) . ?
C15 C16 1.399(4) . ?
C15 H15 0.9500 . ?
C16 C17 1.379(5) . ?
C16 H16 0.9500 . ?
C17 C18 1.388(5) . ?
C17 H17 0.9500 . ?
C18 C19 1.393(4) . ?
C18 H18 0.9500 . ?
C19 H19 0.9500 . ?
C20 C21 1.387(4) . ?
C20 C25 1.401(4) . ?
C21 C22 1.399(4) . ?
C21 H21 0.9500 . ?
C22 C23 1.382(5) . ?
C22 H22 0.9500 . ?
C23 C24 1.380(5) . ?
C23 H23 0.9500 . ?
C24 C25 1.385(4) . ?
C24 H24 0.9500 . ?
C25 H25 0.9500 . ?
C26 C27 1.427(4) . ?
C26 H26 0.9500 . ?
C27 C36 1.411(4) . ?
C27 C28 1.431(4) . ?
C28 C29 1.358(4) . ?
C28 H28 0.9500 . ?
C29 C30 1.429(4) . ?
C29 H29 0.9500 . ?
C30 C31 1.419(4) . ?
C30 C35 1.419(4) . ?
C31 C32 1.371(5) . ?
C31 H31 0.9500 . ?
C32 C33 1.403(5) . ?
C32 H32 0.9500 . ?
C33 C34 1.377(4) . ?
C33 H33 0.9500 . ?
C34 C35 1.410(4) . ?
C34 H34 0.9500 . ?
C35 C36 1.458(4) . ?
C37 C38 1.409(3) . ?
C37 C42 1.413(4) . ?
C38 C39 1.396(4) . ?
C38 C44 1.536(4) . ?
C39 C40 1.384(4) . ?
C39 H39 0.9500 . ?
C40 C41 1.398(4) . ?
C41 C42 1.385(4) . ?
C41 H41 0.9500 . ?
C42 C57 1.533(3) . ?
C43 H43A 0.9800 . ?
C43 H43B 0.9800 . ?
C43 H43C 0.9800 . ?
C44 C45 1.528(4) . ?
C44 C51 1.532(3) . ?
C44 H44 1.0000 . ?
C45 C50 1.390(4) . ?
C45 C46 1.394(4) . ?
C46 C47 1.387(4) . ?
C46 H46 0.9500 . ?
C47 C48 1.388(5) . ?
C47 H47 0.9500 . ?
C48 C49 1.384(5) . ?
C48 H48 0.9500 . ?
C49 C50 1.392(4) . ?
C49 H49 0.9500 . ?
C50 H50 0.9500 . ?
C51 C56 1.384(4) . ?
C51 C52 1.394(4) . ?
C52 C53 1.394(4) . ?
C52 H52 0.9500 . ?
C53 C54 1.379(4) . ?
C53 H53 0.9500 . ?
C54 C55 1.381(4) . ?
C54 H54 0.9500 . ?
C55 C56 1.397(4) . ?
C55 H55 0.9500 . ?
C56 H56 0.9500 . ?
C57 C58 1.523(4) . ?
C57 C64 1.531(4) . ?
C57 H57 1.0000 . ?
C58 C63 1.396(4) . ?
C58 C59 1.398(4) . ?
C59 C60 1.385(4) . ?
C59 H59 0.9500 . ?
C60 C61 1.386(4) . ?
C60 H60 0.9500 . ?
C61 C62 1.384(4) . ?
C61 H61 0.9500 . ?
C62 C63 1.387(4) . ?
C62 H62 0.9500 . ?
C63 H63 0.9500 . ?
C64 C65 1.398(4) . ?
C64 C69 1.398(4) . ?
C65 C66 1.392(4) . ?
C65 H65 0.9500 . ?
C66 C67 1.374(5) . ?
C66 H66 0.9500 . ?
C67 C68 1.392(5) . ?
C67 H67 0.9500 . ?
C68 C69 1.393(4) . ?
C68 H68 0.9500 . ?
C69 H69 0.9500 . ?
C70 C71 1.511(12) . ?
C70 H70A 0.9800 . ?
C70 H70B 0.9800 . ?
C70 H70C 0.9800 . ?
C71 C72 1.534(12) . ?
C71 H71A 0.9900 . ?
C71 H71B 0.9900 . ?
C72 C73 1.492(12) . ?
C72 H72A 0.9900 . ?
C72 H72B 0.9900 . ?
C73 C74 1.399(12) . ?
C73 H73A 0.9900 . ?
C73 H73B 0.9900 . ?
C74 C75 1.529(11) . ?
C74 H74A 0.9900 . ?
C74 H74B 0.9900 . ?
C75 C76 1.437(12) . ?
C75 H75A 0.9900 . ?
C75 H75B 0.9900 . ?
C76 C77 1.388(12) . ?
C76 H76A 0.9900 . ?
C76 H76B 0.9900 . ?
C77 C78 1.417(12) . ?
C77 C79 2.029(15) . ?
C77 H77A 0.9900 . ?
C77 H77B 0.9900 . ?
C78 C79 1.389(11) . ?
C78 H78A 0.9900 . ?
C78 H78B 0.9900 . ?
C79 H79A 0.9800 . ?
C79 H79B 0.9800 . ?
C79 H79C 0.9800 . ?
loop_
_geom_torsion_atom_site_label_1
_geom_torsion_atom_site_label_2
_geom_torsion_atom_site_label_3
_geom_torsion_atom_site_label_4
_geom_torsion
_geom_torsion_site_symmetry_1
_geom_torsion_site_symmetry_2
_geom_torsion_site_symmetry_3
_geom_torsion_site_symmetry_4
_geom_torsion_publ_flag
C6 C1 C2 C3 -3.0(4) . . . . ?
Ni1 C1 C2 C3 175.9(2) . . . . ?
C1 C2 C3 C4 0.7(4) . . . . ?
C2 C3 C4 C5 1.5(4) . . . . ?
C3 C4 C5 C6 -1.4(4) . . . . ?
C2 C1 C6 C5 3.1(4) . . . . ?
Ni1 C1 C6 C5 -175.8(2) . . . . ?
C2 C1 C6 C7 -177.3(3) . . . . ?
Ni1 C1 C6 C7 3.7(4) . . . . ?
C4 C5 C6 C1 -1.0(4) . . . . ?
C4 C5 C6 C7 179.5(3) . . . . ?
C14 P1 C8 C13 -113.6(2) . . . . ?
C20 P1 C8 C13 -5.7(3) . . . . ?
Ni1 P1 C8 C13 117.7(2) . . . . ?
C14 P1 C8 C9 66.2(2) . . . . ?
C20 P1 C8 C9 174.0(2) . . . . ?
Ni1 P1 C8 C9 -62.5(2) . . . . ?
C13 C8 C9 C10 -0.3(4) . . . . ?
P1 C8 C9 C10 179.9(2) . . . . ?
C8 C9 C10 C11 -0.1(4) . . . . ?
C9 C10 C11 C12 0.1(4) . . . . ?
C10 C11 C12 C13 0.3(4) . . . . ?
C11 C12 C13 C8 -0.6(4) . . . . ?
C9 C8 C13 C12 0.6(4) . . . . ?
P1 C8 C13 C12 -179.6(2) . . . . ?
C20 P1 C14 C15 -98.4(2) . . . . ?
C8 P1 C14 C15 8.8(3) . . . . ?
Ni1 P1 C14 C15 143.9(2) . . . . ?
C20 P1 C14 C19 81.7(2) . . . . ?
C8 P1 C14 C19 -171.1(2) . . . . ?
Ni1 P1 C14 C19 -36.0(2) . . . . ?
C19 C14 C15 C16 1.4(4) . . . . ?
P1 C14 C15 C16 -178.5(2) . . . . ?
C14 C15 C16 C17 -1.0(5) . . . . ?
C15 C16 C17 C18 0.2(5) . . . . ?
C16 C17 C18 C19 0.0(5) . . . . ?
C17 C18 C19 C14 0.5(5) . . . . ?
C15 C14 C19 C18 -1.2(4) . . . . ?
P1 C14 C19 C18 178.7(2) . . . . ?
C14 P1 C20 C21 18.7(3) . . . . ?
C8 P1 C20 C21 -90.0(3) . . . . ?
Ni1 P1 C20 C21 138.0(2) . . . . ?
C14 P1 C20 C25 -162.0(2) . . . . ?
C8 P1 C20 C25 89.4(2) . . . . ?
Ni1 P1 C20 C25 -42.7(2) . . . . ?
C25 C20 C21 C22 -0.1(4) . . . . ?
P1 C20 C21 C22 179.3(2) . . . . ?
C20 C21 C22 C23 0.2(5) . . . . ?
C21 C22 C23 C24 -0.3(5) . . . . ?
C22 C23 C24 C25 0.3(5) . . . . ?
C23 C24 C25 C20 -0.1(4) . . . . ?
C21 C20 C25 C24 0.0(4) . . . . ?
P1 C20 C25 C24 -179.4(2) . . . . ?
C37 N1 C26 C27 -167.7(2) . . . . ?
Ni1 N1 C26 C27 2.1(4) . . . . ?
N1 C26 C27 C36 17.5(4) . . . . ?
N1 C26 C27 C28 -171.4(2) . . . . ?
C36 C27 C28 C29 -1.3(4) . . . . ?
C26 C27 C28 C29 -172.5(3) . . . . ?
C27 C28 C29 C30 0.5(4) . . . . ?
C28 C29 C30 C31 -177.9(3) . . . . ?
C28 C29 C30 C35 1.5(4) . . . . ?
C35 C30 C31 C32 0.1(4) . . . . ?
C29 C30 C31 C32 179.5(3) . . . . ?
C30 C31 C32 C33 1.4(5) . . . . ?
C31 C32 C33 C34 -1.7(5) . . . . ?
C32 C33 C34 C35 0.5(4) . . . . ?
C33 C34 C35 C30 1.0(4) . . . . ?
C33 C34 C35 C36 -177.0(3) . . . . ?
C31 C30 C35 C34 -1.3(4) . . . . ?
C29 C30 C35 C34 179.2(2) . . . . ?
C31 C30 C35 C36 176.7(2) . . . . ?
C29 C30 C35 C36 -2.8(4) . . . . ?
Ni1 O1 C36 C27 -20.1(3) . . . . ?
Ni1 O1 C36 C35 161.21(17) . . . . ?
C26 C27 C36 O1 -7.8(4) . . . . ?
C28 C27 C36 O1 -178.7(2) . . . . ?
C26 C27 C36 C35 171.0(2) . . . . ?
C28 C27 C36 C35 0.0(4) . . . . ?
C34 C35 C36 O1 -1.2(4) . . . . ?
C30 C35 C36 O1 -179.2(2) . . . . ?
C34 C35 C36 C27 180.0(2) . . . . ?
C30 C35 C36 C27 2.0(4) . . . . ?
C26 N1 C37 C38 94.7(3) . . . . ?
Ni1 N1 C37 C38 -75.3(3) . . . . ?
C26 N1 C37 C42 -85.8(3) . . . . ?
Ni1 N1 C37 C42 104.2(2) . . . . ?
C42 C37 C38 C39 -3.9(4) . . . . ?
N1 C37 C38 C39 175.7(2) . . . . ?
C42 C37 C38 C44 174.9(2) . . . . ?
N1 C37 C38 C44 -5.5(3) . . . . ?
C37 C38 C39 C40 2.0(4) . . . . ?
C44 C38 C39 C40 -176.8(2) . . . . ?
C43 O2 C40 C39 18.7(4) . . . . ?
C43 O2 C40 C41 -161.6(3) . . . . ?
C38 C39 C40 O2 -178.9(2) . . . . ?
C38 C39 C40 C41 1.4(4) . . . . ?
O2 C40 C41 C42 177.3(2) . . . . ?
C39 C40 C41 C42 -3.0(4) . . . . ?
C40 C41 C42 C37 1.1(4) . . . . ?
C40 C41 C42 C57 179.6(2) . . . . ?
C38 C37 C42 C41 2.3(4) . . . . ?
N1 C37 C42 C41 -177.2(2) . . . . ?
C38 C37 C42 C57 -176.1(2) . . . . ?
N1 C37 C42 C57 4.3(4) . . . . ?
C39 C38 C44 C45 113.0(3) . . . . ?
C37 C38 C44 C45 -65.8(3) . . . . ?
C39 C38 C44 C51 -12.9(3) . . . . ?
C37 C38 C44 C51 168.3(2) . . . . ?
C51 C44 C45 C50 94.3(3) . . . . ?
C38 C44 C45 C50 -32.6(3) . . . . ?
C51 C44 C45 C46 -85.5(3) . . . . ?
C38 C44 C45 C46 147.6(2) . . . . ?
C50 C45 C46 C47 0.8(4) . . . . ?
C44 C45 C46 C47 -179.4(3) . . . . ?
C45 C46 C47 C48 -0.4(4) . . . . ?
C46 C47 C48 C49 -0.5(4) . . . . ?
C47 C48 C49 C50 0.9(4) . . . . ?
C46 C45 C50 C49 -0.3(4) . . . . ?
C44 C45 C50 C49 179.9(2) . . . . ?
C48 C49 C50 C45 -0.5(4) . . . . ?
C45 C44 C51 C56 144.5(3) . . . . ?
C38 C44 C51 C56 -88.8(3) . . . . ?
C45 C44 C51 C52 -37.6(3) . . . . ?
C38 C44 C51 C52 89.2(3) . . . . ?
C56 C51 C52 C53 0.7(4) . . . . ?
C44 C51 C52 C53 -177.3(3) . . . . ?
C51 C52 C53 C54 0.1(5) . . . . ?
C52 C53 C54 C55 -0.5(5) . . . . ?
C53 C54 C55 C56 -0.1(5) . . . . ?
C52 C51 C56 C55 -1.2(4) . . . . ?
C44 C51 C56 C55 176.8(3) . . . . ?
C54 C55 C56 C51 0.9(5) . . . . ?
C41 C42 C57 C58 -109.4(3) . . . . ?
C37 C42 C57 C58 69.0(3) . . . . ?
C41 C42 C57 C64 16.6(3) . . . . ?
C37 C42 C57 C64 -165.0(2) . . . . ?
C64 C57 C58 C63 -83.5(3) . . . . ?
C42 C57 C58 C63 44.0(3) . . . . ?
C64 C57 C58 C59 95.9(3) . . . . ?
C42 C57 C58 C59 -136.6(2) . . . . ?
C63 C58 C59 C60 0.3(4) . . . . ?
C57 C58 C59 C60 -179.2(2) . . . . ?
C58 C59 C60 C61 0.9(4) . . . . ?
C59 C60 C61 C62 -1.8(4) . . . . ?
C60 C61 C62 C63 1.6(4) . . . . ?
C61 C62 C63 C58 -0.4(4) . . . . ?
C59 C58 C63 C62 -0.5(4) . . . . ?
C57 C58 C63 C62 178.9(2) . . . . ?
C58 C57 C64 C65 4.9(3) . . . . ?
C42 C57 C64 C65 -121.0(3) . . . . ?
C58 C57 C64 C69 -173.4(2) . . . . ?
C42 C57 C64 C69 60.8(3) . . . . ?
C69 C64 C65 C66 -0.4(4) . . . . ?
C57 C64 C65 C66 -178.7(3) . . . . ?
C64 C65 C66 C67 0.0(5) . . . . ?
C65 C66 C67 C68 0.4(5) . . . . ?
C66 C67 C68 C69 -0.5(5) . . . . ?
C67 C68 C69 C64 0.0(5) . . . . ?
C65 C64 C69 C68 0.4(4) . . . . ?
C57 C64 C69 C68 178.7(3) . . . . ?
C70 C71 C72 C73 163.0(11) . . . . ?
C71 C72 C73 C74 -178.1(11) . . . . ?
C72 C73 C74 C75 -65.7(16) . . . . ?
C73 C74 C75 C76 178.2(11) . . . . ?
C74 C75 C76 C77 172.8(11) . . . . ?
C75 C76 C77 C78 -159.1(11) . . . . ?
C75 C76 C77 C79 157.6(10) . . . . ?
C76 C77 C78 C79 -106.7(11) . . . . ?
