#------------------------------------------------------------------------------
#$Date: 2024-03-04 22:05:18 +0200 (Mon, 04 Mar 2024) $
#$Revision: 290137 $
#$URL: file:///home/coder/svn-repositories/cod/cif/1/57/05/1570586.cif $
#------------------------------------------------------------------------------
#
# This file is available in the Crystallography Open Database (COD),
# http://www.crystallography.net/
#
# All data on this site have been placed in the public domain by the
# contributors.
#
data_1570586
loop_
_publ_author_name
'Das, Kousik'
'Pedada, Abhilash'
'Singha, Tushar'
'Hari, Durga Prasad'
_publ_section_title
;
 Strain-enabled radical spirocyclization cascades: rapid access to
 spirocyclobutyl lactones and - lactams.
;
_journal_issue                   9
_journal_name_full               'Chemical science'
_journal_page_first              3182
_journal_page_last               3191
_journal_paper_doi               10.1039/d3sc05700c
_journal_volume                  15
_journal_year                    2024
_chemical_formula_sum            'C26 H25 N O3 S Se'
_chemical_formula_weight         510.49
_space_group_crystal_system      monoclinic
_space_group_IT_number           14
_space_group_name_Hall           '-P 2yn'
_space_group_name_H-M_alt        'P 1 21/n 1'
_atom_sites_solution_hydrogens   geom
_audit_creation_method           SHELXL-2019/1
_audit_update_record
;
2023-04-28 deposited with the CCDC.	2023-12-21 downloaded from the CCDC.
;
_cell_angle_alpha                90
_cell_angle_beta                 99.543(12)
_cell_angle_gamma                90
_cell_formula_units_Z            4
_cell_length_a                   14.879(6)
_cell_length_b                   8.126(3)
_cell_length_c                   19.752(7)
_cell_measurement_reflns_used    8782
_cell_measurement_temperature    293(2)
_cell_measurement_theta_max      21.6833
_cell_measurement_theta_min      2.7108
_cell_volume                     2355.1(15)
_computing_structure_refinement  'SHELXL-2019/1 (Sheldrick, 2019)'
_diffrn_ambient_temperature      293(2)
_diffrn_measured_fraction_theta_full 0.999
_diffrn_measured_fraction_theta_max 0.999
_diffrn_measurement_device_type  'Bruker D8 Quest'
_diffrn_radiation_type           MoK\a
_diffrn_radiation_wavelength     0.71076
_diffrn_reflns_av_R_equivalents  0.0887
_diffrn_reflns_av_unetI/netI     0.0393
_diffrn_reflns_Laue_measured_fraction_full 0.999
_diffrn_reflns_Laue_measured_fraction_max 0.999
_diffrn_reflns_limit_h_max       19
_diffrn_reflns_limit_h_min       -19
_diffrn_reflns_limit_k_max       10
_diffrn_reflns_limit_k_min       -10
_diffrn_reflns_limit_l_max       24
_diffrn_reflns_limit_l_min       -25
_diffrn_reflns_number            57675
_diffrn_reflns_point_group_measured_fraction_full 0.999
_diffrn_reflns_point_group_measured_fraction_max 0.999
_diffrn_reflns_theta_full        25.243
_diffrn_reflns_theta_max         27.160
_diffrn_reflns_theta_min         2.716
_exptl_absorpt_coefficient_mu    1.711
_exptl_crystal_colour            colourless
_exptl_crystal_density_diffrn    1.440
_exptl_crystal_description       block
_exptl_crystal_F_000             1048
_refine_diff_density_max         0.767
_refine_diff_density_min         -0.521
_refine_diff_density_rms         0.070
_refine_ls_extinction_method     none
_refine_ls_goodness_of_fit_ref   1.122
_refine_ls_hydrogen_treatment    constr
_refine_ls_matrix_type           full
_refine_ls_number_parameters     292
_refine_ls_number_reflns         5224
_refine_ls_number_restraints     0
_refine_ls_restrained_S_all      1.122
_refine_ls_R_factor_all          0.1028
_refine_ls_R_factor_gt           0.0759
_refine_ls_shift/su_max          0.025
_refine_ls_shift/su_mean         0.001
_refine_ls_structure_factor_coef Fsqd
_refine_ls_weighting_details
'w=1/[\s^2^(Fo^2^)+(0.0570P)^2^+4.7670P] where P=(Fo^2^+2Fc^2^)/3'
_refine_ls_weighting_scheme      calc
_refine_ls_wR_factor_gt          0.1560
_refine_ls_wR_factor_ref         0.1685
_reflns_Friedel_coverage         0.000
_reflns_number_gt                3971
_reflns_number_total             5224
_reflns_threshold_expression     'I > 2\s(I)'
_cod_data_source_file            d3sc05700c2.cif
_cod_data_source_block           rc_32_reduced1_a
_cod_depositor_comments
'Adding full bibliography for 1570586--1570587.cif.'
_cod_original_cell_volume        2355.0(16)
_cod_original_sg_symbol_H-M      'P 21/n'
_cod_database_code               1570586
_shelx_shelxl_version_number     2019/1
_shelx_space_group_comment
;
The symmetry employed for this shelxl refinement is uniquely defined
by the following loop, which should always be used as a source of
symmetry information in preference to the above space-group names.
They are only intended as comments.
;
_shelx_res_file
;
TITL rc_32_reduced1_a.res in P2(1)/n
    rc_32_reduced1_a.res
    created by SHELXL-2019/1 at 12:30:12 on 15-Mar-2023
REM Old TITL rc_32_reduced1.hkl
REM SHELXT solution in P2(1)/n: R1 0.185, Rweak 0.045, Alpha 0.060
REM <I/s>   0.754 for  358 systematic absences,  Orientation as input
REM Formula found by SHELXT:  C26 N O3 S Se
CELL  0.71076  14.8787   8.1260  19.7517   90.000   99.543   90.000
ZERR    4.000   0.0060   0.0033   0.0072    0.000    0.012    0.000
LATT  1
SYMM 1/2-X, 1/2+Y, 1/2-Z
SFAC C H N O S SE
UNIT 104 100 4 12 4 4

+rc_32_reduced1_a.bodd
ACTA
LIST 4
L.S. 10
BOND
REM LIST 6
FMAP 2
PLAN 20
WGHT    0.057000    4.767000
FVAR       0.35477   0.16734   0.07240   1.95789
S1    5    0.568558   -0.090199    0.630260    11.00000    0.05127    0.02910 =
         0.08653   -0.00728   -0.00781    0.00402
O1    4    0.392083    0.174696    0.772754    11.00000    0.13587    0.04371 =
         0.06615    0.01866    0.03221    0.01671
N1    3    0.372725    0.445302    0.737338    11.00000    0.06771    0.03493 =
         0.05113    0.00142    0.01887    0.00556
SE1   6    0.359732    0.655536    0.512869    11.00000    0.06841    0.03974 =
         0.05870    0.01151    0.00539    0.00380
O2    4    0.543671   -0.163804    0.691150    11.00000    0.08105    0.07135 =
         0.16297    0.05442    0.00614   -0.00060
O3    4    0.557650   -0.183124    0.569268    11.00000    0.08049    0.08660 =
         0.15562   -0.07395   -0.02215    0.01323
C1    1    0.247048    0.559127    0.470948    11.00000    0.05666    0.03932 =
         0.05068    0.01365    0.01497    0.01181
C2    1    0.166801    0.616138    0.488370    11.00000    0.07031    0.06568 =
         0.10236    0.00896    0.03770    0.01556
AFIX  43
H2    2    0.167791    0.689991    0.524456    11.00000   -1.20000
AFIX   0
C3    1    0.084564    0.562503    0.451665    11.00000    0.05412    0.09804 =
         0.17830    0.03586    0.03415    0.01292
AFIX  43
H3    2    0.030217    0.603322    0.462341    11.00000   -1.20000
AFIX   0
C4    1    0.082452    0.448839    0.399287    11.00000    0.08319    0.09830 =
         0.12814    0.03447   -0.01852   -0.00949
AFIX  43
H4    2    0.027185    0.413527    0.374488    11.00000   -1.20000
AFIX   0
C5    1    0.162344    0.389748    0.384702    11.00000    0.09279    0.09453 =
         0.07870    0.00305   -0.01578   -0.00351
AFIX  43
H5    2    0.161705    0.311329    0.350331    11.00000   -1.20000
AFIX   0
C6    1    0.243351    0.443863    0.419763    11.00000    0.07197    0.06444 =
         0.05895   -0.00474    0.00585    0.01435
AFIX  43
H6    2    0.297326    0.401943    0.408845    11.00000   -1.20000
AFIX   0
C7    1    0.419230    0.463230    0.559314    11.00000    0.05176    0.04698 =
         0.04740    0.00449    0.00637    0.01079
AFIX  23
H7A   2    0.417274    0.373927    0.526514    11.00000   -1.20000
H7B   2    0.482753    0.489132    0.575700    11.00000   -1.20000
AFIX   0
C8    1    0.375848    0.406374    0.619157    11.00000    0.04532    0.03746 =
         0.04618    0.00033    0.00421    0.00452
AFIX  13
H8    2    0.312394    0.377895    0.601109    11.00000   -1.20000
AFIX   0
C9    1    0.374517    0.536299    0.674375    11.00000    0.06861    0.03732 =
         0.05248    0.00185    0.01729    0.00596
AFIX  23
H9A   2    0.428420    0.605133    0.678580    11.00000   -1.20000
H9B   2    0.320949    0.605533    0.663573    11.00000   -1.20000
AFIX   0
C10   1    0.391872    0.281727    0.729357    11.00000    0.06376    0.03817 =
         0.05556    0.01327    0.01176    0.00863
C11   1    0.418727    0.258239    0.659903    11.00000    0.05310    0.03280 =
         0.04801   -0.00063    0.00772    0.00756
C12   1    0.365786    0.527519    0.799293    11.00000    0.05689    0.05066 =
         0.04826   -0.00205    0.02073    0.00412
C13   1    0.364735    0.696913    0.800889    11.00000    0.07662    0.04934 =
         0.07147   -0.00393    0.02515    0.00464
AFIX  43
H13   2    0.366915    0.755708    0.760798    11.00000   -1.20000
AFIX   0
C14   1    0.360502    0.780800    0.860988    11.00000    0.07261    0.06293 =
         0.08528   -0.02002    0.02399   -0.00008
AFIX  43
H14   2    0.359803    0.895240    0.861079    11.00000   -1.20000
AFIX   0
C15   1    0.357353    0.697094    0.919941    11.00000    0.11224    0.07969 =
         0.06587   -0.01942    0.02923    0.00524
AFIX  43
H15   2    0.354815    0.752804    0.960711    11.00000   -1.20000
AFIX   0
C16   1    0.357981    0.532789    0.918109    11.00000    0.24860    0.08404 =
         0.06723    0.00298    0.07146    0.01127
AFIX  43
H16   2    0.355916    0.474518    0.958346    11.00000   -1.20000
AFIX   0
C17   1    0.361574    0.447373    0.858766    11.00000    0.21374    0.05263 =
         0.06754    0.00420    0.06611    0.00314
AFIX  43
H17   2    0.361112    0.332940    0.859375    11.00000   -1.20000
AFIX   0
C18   1    0.405589    0.087253    0.626463    11.00000    0.05738    0.03673 =
         0.06512   -0.00453   -0.00149    0.00107
AFIX  23
H18A  2    0.361217    0.084993    0.584530    11.00000   -1.20000
H18B  2    0.393679    0.000907    0.657711    11.00000   -1.20000
AFIX   0
C19   1    0.524027    0.232232    0.666151    11.00000    0.05967    0.03346 =
         0.05544   -0.00653   -0.00239    0.00220
AFIX  23
H19A  2    0.555787    0.325133    0.650258    11.00000   -1.20000
H19B  2    0.553362    0.196850    0.711347    11.00000   -1.20000
AFIX   0
C20   1    0.505437    0.093411    0.614326    11.00000    0.05627    0.04083 =
         0.05981   -0.00175    0.00442    0.00699
AFIX  13
H20   2    0.508302    0.134075    0.568022    11.00000   -1.20000
AFIX   0
C21   1    0.682790   -0.028337    0.651253    11.00000    0.05156    0.03241 =
         0.05449   -0.00369   -0.00495    0.00412
C22   1    0.721300   -0.012178    0.719474    11.00000    0.06240    0.05429 =
         0.06806   -0.00895   -0.00175    0.00314
AFIX  43
H22   2    0.687532   -0.036107    0.753867    11.00000   -1.20000
AFIX   0
C23   1    0.810601    0.039964    0.736036    11.00000    0.07206    0.07431 =
         0.07778   -0.01650   -0.01227    0.00437
AFIX  43
H23   2    0.837096    0.052252    0.781819    11.00000   -1.20000
AFIX   0
C24   1    0.859499    0.073132    0.685842    11.00000    0.06397    0.06660 =
         0.12325   -0.00986   -0.00949   -0.00610
AFIX  43
H24   2    0.919354    0.109503    0.697319    11.00000   -1.20000
AFIX   0
C25   1    0.821908    0.053783    0.618395    11.00000    0.08326    0.08757 =
         0.11647    0.03284    0.03612   -0.01294
AFIX  43
H25   2    0.856993    0.073409    0.584404    11.00000   -1.20000
AFIX   0
C26   1    0.732720    0.005581    0.600408    11.00000    0.07519    0.07042 =
         0.06270    0.01534   -0.00056    0.00158
AFIX  43
H26   2    0.706511   -0.003955    0.554445    11.00000   -1.20000
AFIX   0
HKLF 4

L1      2    0.39196    0.23730    0.74737  !    0.05506    0.01347  O1
L2      2    0.39208    0.17470    0.77275  !   -0.05506    1.09446  O1
L3      2    0.38212    0.36506    0.73342  !    0.10325    0.01578  N1
L4      2    0.37272    0.44530    0.73734  !   -0.10325    1.10033  N1
L5      2    0.36892    0.49034    0.77128  !    0.06326    0.02201  N1
L6      2    0.37272    0.44530    0.73734  !   -0.06326    1.11013  N1
L7      2    0.37367    0.49328    0.70414  !    0.08719    0.02476  N1
L8      2    0.37272    0.44530    0.73734  !   -0.08719    1.11013  N1
L9      2    0.55407   -0.13304    0.66570  !    0.06577    0.01209  O2
L10     2    0.54367   -0.16380    0.69115  !   -0.06577    1.14341  O2
L11     2    0.56230   -0.14353    0.59526  !    0.08919    0.01318  O3
L12     2    0.55765   -0.18312    0.56927  !   -0.08919    1.08271  O3
L13     2    0.21256    0.58363    0.47843  !    0.06844    0.00565  C2
L14     2    0.16680    0.61614    0.48837  !   -0.06844    0.79295  C2
L15     2    0.11408    0.58175    0.46484  !    0.09873    0.00782  C2
L16     2    0.16680    0.61614    0.48837  !   -0.09873    0.79295  C2
L17     2    0.16713    0.64076    0.50040  !    0.13187    0.02310  C2
L18     2    0.16680    0.61614    0.48837  !   -0.13187    0.79295  C2
L19     2    0.16727    0.65084    0.50533  !    0.07614    0.02469  H2
L20     2    0.16779    0.68999    0.52446  !   -0.07614    1.09250  H2
L21     2    0.06528    0.57699    0.45545  !    0.10911    0.03084  C3
L22     2    0.08456    0.56250    0.45166  !   -0.10911    0.89280  C3
L23     2    0.13936    0.59824    0.47612  !    0.09990    0.00862  C3
L24     2    0.08456    0.56250    0.45166  !   -0.09990    0.89280  C3
L25     2    0.08316    0.48691    0.41683  !    0.09990    0.00862  C3
L26     2    0.08456    0.56250    0.45166  !   -0.09990    0.89280  C3
L27     2    0.05903    0.58168    0.45668  !    0.07614    0.02469  H3
L28     2    0.03022    0.60332    0.46234  !   -0.07614    1.09250  H3
L29     2    0.06284    0.43631    0.39049  !    0.10911    0.03084  C4
L30     2    0.08245    0.44884    0.39929  !   -0.10911    0.89280  C4
L31     2    0.08386    0.52443    0.43412  !    0.09990    0.00862  C4
L32     2    0.08245    0.44884    0.39929  !   -0.09990    0.89280  C4
L33     2    0.13546    0.40963    0.38961  !    0.09990    0.00862  C4
L34     2    0.08245    0.44884    0.39929  !   -0.09990    0.89280  C4
L35     2    0.05648    0.43225    0.38763  !    0.07614    0.02469  H4
L36     2    0.02718    0.41353    0.37449  !   -0.07614    1.09250  H4
L37     2    0.16212    0.36192    0.37251  !    0.10911    0.03084  C5
L38     2    0.16234    0.38975    0.38470  !   -0.10911    0.89280  C5
L39     2    0.10934    0.42895    0.39438  !    0.09990    0.00862  C5
L40     2    0.16234    0.38975    0.38470  !   -0.09990    0.89280  C5
L41     2    0.21644    0.42588    0.40811  !    0.09990    0.00862  C5
L42     2    0.16234    0.38975    0.38470  !   -0.09990    0.89280  C5
L43     2    0.16204    0.35290    0.36855  !    0.07614    0.02469  H5
L44     2    0.16170    0.31133    0.35033  !   -0.07614    1.09250  H5
L45     2    0.24545    0.50936    0.44885  !    0.06844    0.00565  C6
L46     2    0.24335    0.44386    0.41976  !   -0.06844    0.79295  C6
L47     2    0.19134    0.40912    0.39725  !    0.09873    0.00782  C6
L48     2    0.24335    0.44386    0.41976  !   -0.09873    0.79295  C6
L49     2    0.26134    0.42989    0.41612  !    0.13187    0.02310  C6
L50     2    0.24335    0.44386    0.41976  !   -0.13187    0.79295  C6
L51     2    0.26871    0.42417    0.41463  !    0.07614    0.02469  H6
L52     2    0.29733    0.40194    0.40884  !   -0.07614    1.09250  H6
L53     2    0.41803    0.40845    0.53919  !    0.07798    0.01658  H7A
L54     2    0.41727    0.37393    0.52651  !   -0.07798    1.03572  H7A
L55     2    0.45820    0.47912    0.56936  !    0.07798    0.01658  H7B
L56     2    0.48275    0.48913    0.57570  !   -0.07798    1.03572  H7B
L57     2    0.35273    0.39600    0.61258  !    0.12835    0.02512  C8
L58     2    0.37585    0.40637    0.61916  !   -0.12835    1.10621  C8
L59     2    0.40665    0.44674    0.57667  !    0.07748    0.01919  C8
L60     2    0.37585    0.40637    0.61916  !   -0.07748    1.10621  C8
L61     2    0.37516    0.47363    0.64774  !    0.08417    0.02795  C8
L62     2    0.37585    0.40637    0.61916  !   -0.08417    1.10621  C8
L63     2    0.39808    0.32957    0.64028  !    0.08417    0.02795  C8
L64     2    0.37585    0.40637    0.61916  !   -0.08417    1.10621  C8
L65     2    0.33544    0.38824    0.60767  !    0.07631    0.02216  H8
L66     2    0.31239    0.37790    0.60111  !   -0.07631    1.11600  H8
L67     2    0.39358    0.56064    0.67586  !    0.11848    0.03150  C9
L68     2    0.37452    0.53630    0.67437  !   -0.11848    1.12775  C9
L69     2    0.35557    0.56078    0.67056  !    0.11848    0.03150  C9
L70     2    0.37452    0.53630    0.67437  !   -0.11848    1.12775  C9
L71     2    0.37325    0.47195    0.71890  !    0.08166    0.03338  C9
L72     2    0.37452    0.53630    0.67437  !   -0.08166    1.12775  C9
L73     2    0.37527    0.46324    0.64332  !    0.08652    0.02295  C9
L74     2    0.37452    0.53630    0.67437  !   -0.08652    1.12775  C9
L75     2    0.40197    0.57135    0.67652  !    0.09354    0.02505  H9A
L76     2    0.42842    0.60513    0.67858  !   -0.09354    1.12775  H9A
L77     2    0.34724    0.57156    0.66887  !    0.09354    0.02505  H9B
L78     2    0.32095    0.60553    0.66357  !   -0.09354    1.12775  H9B
L79     2    0.41181    0.26429    0.67779  !    0.06493    0.02462  C10
L80     2    0.39187    0.28173    0.72936  !   -0.06493    1.08467  C10
L81     2    0.37901    0.39161    0.73472  !    0.05255    0.03222  C10
L82     2    0.39187    0.28173    0.72936  !   -0.05255    1.08467  C10
L83     2    0.39199    0.22088    0.75403  !    0.20483    0.02578  C10
L84     2    0.39187    0.28173    0.72936  !   -0.20483    1.08467  C10
L85     2    0.40082    0.32011    0.64288  !    0.07882    0.02527  C11
L86     2    0.41873    0.25824    0.65990  !   -0.07882    1.09642  C11
L87     2    0.40749    0.26807    0.68896  !    0.07882    0.02527  C11
L88     2    0.41873    0.25824    0.65990  !   -0.07882    1.09642  C11
L89     2    0.41324    0.18682    0.64593  !    0.07882    0.02527  C11
L90     2    0.41873    0.25824    0.65990  !   -0.07882    1.09642  C11
L91     2    0.46265    0.24739    0.66251  !    0.07882    0.02527  C11
L92     2    0.41873    0.25824    0.65990  !   -0.07882    1.09642  C11
L93     2    0.36925    0.48644    0.76834  !    0.08635    0.03265  C12
L94     2    0.36579    0.52752    0.79929  !   -0.08635    1.12775  C12
L95     2    0.36527    0.60994    0.80007  !    0.12501    0.01810  C12
L96     2    0.36579    0.52752    0.79929  !   -0.12501    1.12775  C12
L97     2    0.36374    0.48856    0.82820  !    0.12501    0.01810  C12
L98     2    0.36579    0.52752    0.79929  !   -0.12501    1.12775  C12
L99     2    0.36533    0.60084    0.79998  !    0.06844    0.00565  C13
L100    2    0.36474    0.69691    0.80089  !   -0.06844    0.79295  C13
L101    2    0.36202    0.75080    0.83949  !    0.09873    0.00782  C13
L102    2    0.36474    0.69691    0.80089  !   -0.09873    0.79295  C13
L103    2    0.36546    0.71651    0.78753  !    0.13187    0.02310  C13
L104    2    0.36474    0.69691    0.80089  !   -0.13187    0.79295  C13
L105    2    0.36576    0.72454    0.78205  !    0.07614    0.02469  H13
L106    2    0.36692    0.75571    0.76080  !   -0.07614    1.09250  H13
L107    2    0.36025    0.82141    0.86102  !    0.10911    0.03084  C14
L108    2    0.36050    0.78080    0.86099  !   -0.10911    0.89280  C14
L109    2    0.36333    0.72479    0.82086  !    0.09990    0.00862  C14
L110    2    0.36050    0.78080    0.86099  !   -0.09990    0.89280  C14
L111    2    0.35841    0.72512    0.90020  !    0.09990    0.00862  C14
L112    2    0.36050    0.78080    0.86099  !   -0.09990    0.89280  C14
L113    2    0.36017    0.83457    0.86103  !    0.07614    0.02469  H14
L114    2    0.35980    0.89524    0.86108  !   -0.07614    1.09250  H14
L115    2    0.35645    0.71686    0.93441  !    0.10911    0.03084  C15
L116    2    0.35735    0.69709    0.91994  !   -0.10911    0.89280  C15
L117    2    0.35945    0.75277    0.88073  !    0.09990    0.00862  C15
L118    2    0.35735    0.69709    0.91994  !   -0.09990    0.89280  C15
L119    2    0.35777    0.58762    0.91872  !    0.09990    0.00862  C15
L120    2    0.35735    0.69709    0.91994  !   -0.09990    0.89280  C15
L121    2    0.35616    0.72327    0.93910  !    0.07614    0.02469  H15
L122    2    0.35482    0.75280    0.96071  !   -0.07614    1.09250  H15
L123    2    0.35725    0.51211    0.93239  !    0.10911    0.03084  C16
L124    2    0.35798    0.53279    0.91811  !   -0.10911    0.89280  C16
L125    2    0.35756    0.64227    0.91933  !    0.09990    0.00862  C16
L126    2    0.35798    0.53279    0.91811  !   -0.09990    0.89280  C16
L127    2    0.36038    0.47584    0.87854  !    0.09990    0.00862  C16
L128    2    0.35798    0.53279    0.91811  !   -0.09990    0.89280  C16
L129    2    0.35701    0.50541    0.93702  !    0.07614    0.02469  H16
L130    2    0.35592    0.47452    0.95835  !   -0.07614    1.09250  H16
L131    2    0.36396    0.49278    0.82507  !    0.06844    0.00565  C17
L132    2    0.36157    0.44737    0.85877  !   -0.06844    0.79295  C17
L133    2    0.35927    0.50220    0.89686  !    0.09873    0.00782  C17
L134    2    0.36157    0.44737    0.85877  !   -0.09873    0.79295  C17
L135    2    0.36142    0.40923    0.85897  !    0.13187    0.02310  C17
L136    2    0.36157    0.44737    0.85877  !   -0.13187    0.79295  C17
L137    2    0.36136    0.39360    0.85905  !    0.07614    0.02469  H17
L138    2    0.36111    0.33294    0.85937  !   -0.07614    1.09250  H17
L139    2    0.39068    0.08649    0.61237  !    0.11865    0.02882  C18
L140    2    0.40559    0.08725    0.62646  !   -0.11865    1.11208  C18
L141    2    0.40159    0.05823    0.63697  !    0.11865    0.02882  C18
L142    2    0.40559    0.08725    0.62646  !   -0.11865    1.11208  C18
L143    2    0.41158    0.16524    0.64172  !    0.08752    0.02672  C18
L144    2    0.40559    0.08725    0.62646  !   -0.08752    1.11208  C18
L145    2    0.45110    0.09006    0.62093  !    0.08752    0.02672  C18
L146    2    0.40559    0.08725    0.62646  !   -0.08752    1.11208  C18
L147    2    0.38555    0.08623    0.60753  !    0.06844    0.02766  H18A
L148    2    0.36122    0.08499    0.58453  !   -0.06844    1.11208  H18A
L149    2    0.40021    0.04826    0.64057  !    0.06844    0.02766  H18B
L150    2    0.39368    0.00091    0.65771  !   -0.06844    1.11208  H18B
L151    2    0.53470    0.26345    0.66081  !    0.11865    0.02882  C19
L152    2    0.52403    0.23223    0.66615  !   -0.11865    1.11208  C19
L153    2    0.53389    0.22034    0.68134  !    0.11865    0.02882  C19
L154    2    0.52403    0.23223    0.66615  !   -0.11865    1.11208  C19
L155    2    0.47606    0.24408    0.66330  !    0.08752    0.02672  C19
L156    2    0.52403    0.23223    0.66615  !   -0.08752    1.11208  C19
L157    2    0.51555    0.16893    0.64252  !    0.08752    0.02672  C19
L158    2    0.52403    0.23223    0.66615  !   -0.08752    1.11208  C19
L159    2    0.53837    0.27418    0.65897  !    0.06844    0.02766  H19A
L160    2    0.55579    0.32513    0.65026  !   -0.06844    1.11208  H19A
L161    2    0.53727    0.21626    0.68656  !    0.06844    0.02766  H19B
L162    2    0.55336    0.19685    0.71135  !   -0.06844    1.11208  H19B
L163    2    0.50639    0.10690    0.59897  !    0.11630    0.02954  C20
L164    2    0.50544    0.09341    0.61433  !   -0.11630    1.11991  C20
L165    2    0.53970   -0.00624    0.62297  !    0.11396    0.02664  C20
L166    2    0.50544    0.09341    0.61433  !   -0.11396    1.11991  C20
L167    2    0.43063    0.08880    0.62342  !    0.07514    0.02491  C20
L168    2    0.50544    0.09341    0.61433  !   -0.07514    1.11991  C20
L169    2    0.51937    0.19742    0.65315  !    0.07514    0.02491  C20
L170    2    0.50544    0.09341    0.61433  !   -0.07514    1.11991  C20
L171    2    0.50687    0.11374    0.59117  !    0.05255    0.00659  H20
L172    2    0.50830    0.13408    0.56802  !   -0.05255    0.92021  H20
L173    2    0.61672   -0.06412    0.63911  !    0.10225    0.01730  C21
L174    2    0.68279   -0.02834    0.65125  !   -0.10225    1.16103  C21
L175    2    0.70690   -0.01822    0.69396  !    0.09371    0.02114  C21
L176    2    0.68279   -0.02834    0.65125  !   -0.09371    1.16103  C21
L177    2    0.71404   -0.00711    0.61943  !    0.09371    0.02114  C21
L178    2    0.68279   -0.02834    0.65125  !   -0.09371    1.16103  C21
L179    2    0.69945   -0.02134    0.68077  !    0.06844    0.00565  C22
L180    2    0.72130   -0.01218    0.71947  !   -0.06844    0.79295  C22
L181    2    0.77865    0.02131    0.73011  !    0.09873    0.00782  C22
L182    2    0.72130   -0.01218    0.71947  !   -0.09873    0.79295  C22
L183    2    0.71004   -0.02015    0.73094  !    0.13187    0.02310  C22
L184    2    0.72130   -0.01218    0.71947  !   -0.13187    0.79295  C22
L185    2    0.70543   -0.02342    0.73564  !    0.07614    0.02469  H22
L186    2    0.68753   -0.03611    0.75387  !   -0.07614    1.09250  H22
L187    2    0.82000    0.04432    0.75228  !    0.10911    0.03084  C23
L188    2    0.81060    0.03996    0.73604  !   -0.10911    0.89280  C23
L189    2    0.75099    0.00516    0.72498  !    0.09990    0.00862  C23
L190    2    0.81060    0.03996    0.73604  !   -0.09990    0.89280  C23
L191    2    0.84315    0.06204    0.70262  !    0.09990    0.00862  C23
L192    2    0.81060    0.03996    0.73604  !   -0.09990    0.89280  C23
L193    2    0.82305    0.04574    0.75755  !    0.07614    0.02469  H23
L194    2    0.83710    0.05225    0.78182  !   -0.07614    1.09250  H23
L195    2    0.88074    0.08604    0.68991  !    0.10911    0.03084  C24
L196    2    0.85950    0.07313    0.68584  !   -0.10911    0.89280  C24
L197    2    0.82695    0.05105    0.71925  !    0.09990    0.00862  C24
L198    2    0.85950    0.07313    0.68584  !   -0.09990    0.89280  C24
L199    2    0.83445    0.06024    0.64090  !    0.09990    0.00862  C24
L200    2    0.85950    0.07313    0.68584  !   -0.09990    0.89280  C24
L201    2    0.88762    0.09022    0.69123  !    0.07614    0.02469  H24
L202    2    0.91935    0.10950    0.69732  !   -0.07614    1.09250  H24
L203    2    0.83436    0.06075    0.60633  !    0.10911    0.03084  C25
L204    2    0.82191    0.05378    0.61840  !   -0.10911    0.89280  C25
L205    2    0.84696    0.06668    0.66334  !    0.09990    0.00862  C25
L206    2    0.82191    0.05378    0.61840  !   -0.09990    0.89280  C25
L207    2    0.76239    0.02162    0.60639  !    0.09990    0.00862  C25
L208    2    0.82191    0.05378    0.61840  !   -0.09990    0.89280  C25
L209    2    0.83839    0.06301    0.60242  !    0.07614    0.02469  H25
L210    2    0.85699    0.07341    0.58440  !   -0.07614    1.09250  H25
L211    2    0.70442   -0.01365    0.62923  !    0.06844    0.00565  C26
L212    2    0.73272    0.00558    0.60041  !   -0.06844    0.79295  C26
L213    2    0.78996    0.03652    0.61195  !    0.09873    0.00782  C26
L214    2    0.73272    0.00558    0.60041  !   -0.09873    0.79295  C26
L215    2    0.72398    0.00240    0.58509  !    0.13187    0.02310  C26
L216    2    0.73272    0.00558    0.60041  !   -0.13187    0.79295  C26
L217    2    0.72040    0.00110    0.57881  !    0.07614    0.02469  H26
L218    2    0.70651   -0.00395    0.55444  !   -0.07614    1.09250  H26
L219    2    0.38640    0.17730    0.79410  !    0.13940    0.02339  O1
L220    2    0.39786    0.12117    0.77206  !    0.13940    0.02339  O1
L221    2    0.39208    0.17470    0.77275  !   -0.27879    1.09446  O1
L222    2    0.34217    0.43335    0.73431  !    0.12082    0.02454  N1
L223    2    0.40328    0.45726    0.74037  !    0.12082    0.02454  N1
L224    2    0.37272    0.44530    0.73734  !   -0.24164    1.11013  N1
L225    2    0.53773   -0.19700    0.68311  !    0.13622    0.02237  O2
L226    2    0.54935   -0.13138    0.69983  !    0.13622    0.02237  O2
L227    2    0.54367   -0.16380    0.69115  !   -0.27243    1.14341  O2
L228    2    0.54932   -0.21931    0.57298  !    0.18525    0.02360  O3
L229    2    0.56454   -0.15922    0.55750  !    0.18525    0.02360  O3
L230    2    0.55765   -0.18312    0.56927  !   -0.37050    1.08271  O3



     d12       A        B1       B2       r     molecule  atom1 atom2

    1.336    0.100    0.009    0.893    0.890   rc_32_reduced1_a.re  C16 C15
    1.336    0.100    0.009    0.893    0.890   rc_32_reduced1_a.re  C15 C16
    1.351    0.100    0.009    0.893    0.899   rc_32_reduced1_a.re  C24 C23
    1.351    0.100    0.009    0.893    0.899   rc_32_reduced1_a.re  C23 C24
    1.354    0.068    0.006    0.793    0.767   rc_32_reduced1_a.re  C17 C12
    1.354    0.125    0.018    1.128    0.658   rc_32_reduced1_a.re  C12 C17
    1.356    0.100    0.009    0.893    0.902   rc_32_reduced1_a.re  C15 C14
    1.356    0.100    0.009    0.893    0.902   rc_32_reduced1_a.re  C14 C15
    1.356    0.100    0.009    0.893    0.900   rc_32_reduced1_a.re  C5 C4
    1.356    0.100    0.009    0.893    0.900   rc_32_reduced1_a.re  C4 C5
    1.360    0.099    0.008    0.793    0.873   rc_32_reduced1_a.re  C6 C5
    1.360    0.100    0.009    0.893    0.908   rc_32_reduced1_a.re  C5 C6
    1.366    0.100    0.009    0.893    0.910   rc_32_reduced1_a.re  C25 C24
    1.366    0.100    0.009    0.893    0.910   rc_32_reduced1_a.re  C24 C25
    1.371    0.099    0.008    0.793    0.880   rc_32_reduced1_a.re  C17 C16
    1.371    0.100    0.009    0.893    0.914   rc_32_reduced1_a.re  C16 C17
    1.373    0.068    0.006    0.793    0.778   rc_32_reduced1_a.re  C26 C21
    1.373    0.094    0.021    1.161    0.859   rc_32_reduced1_a.re  C21 C26
    1.373    0.068    0.006    0.793    0.780   rc_32_reduced1_a.re  C6 C1
    1.373    0.099    0.008    0.793    0.881   rc_32_reduced1_a.re  C26 C25
    1.373    0.100    0.009    0.893    0.916   rc_32_reduced1_a.re  C25 C26
    1.377    0.068    0.006    0.793    0.785   rc_32_reduced1_a.re  C2 C1
    1.377    0.068    0.006    0.793    0.781   rc_32_reduced1_a.re  C13 C12
    1.377    0.125    0.018    1.128    0.670   rc_32_reduced1_a.re  C12 C13
    1.379    0.100    0.009    0.893    0.921   rc_32_reduced1_a.re  C14 C13
    1.379    0.099    0.008    0.793    0.886   rc_32_reduced1_a.re  C13 C14
    1.380    0.068    0.006    0.793    0.783   rc_32_reduced1_a.re  C22 C21
    1.380    0.094    0.021    1.161    0.864   rc_32_reduced1_a.re  C21 C22
    1.381    0.100    0.009    0.893    0.922   rc_32_reduced1_a.re  C23 C22
    1.381    0.099    0.008    0.793    0.887   rc_32_reduced1_a.re  C22 C23
    1.383    0.100    0.009    0.893    0.920   rc_32_reduced1_a.re  C4 C3
    1.383    0.100    0.009    0.893    0.920   rc_32_reduced1_a.re  C3 C4
    1.385    0.100    0.009    0.893    0.923   rc_32_reduced1_a.re  C3 C2
    1.385    0.099    0.008    0.793    0.888   rc_32_reduced1_a.re  C2 C3
    1.503    0.079    0.025    1.096    0.629   rc_32_reduced1_a.re  C11 C10
    1.518    0.088    0.027    1.112    0.692   rc_32_reduced1_a.re  C19 C20
    1.520    0.087    0.023    1.128    0.855   rc_32_reduced1_a.re  C9 C8
    1.520    0.084    0.028    1.106    0.787   rc_32_reduced1_a.re  C8 C9
    1.528    0.079    0.025    1.096    0.638   rc_32_reduced1_a.re  C11 C8
    1.528    0.084    0.028    1.106    0.792   rc_32_reduced1_a.re  C8 C11
    1.537    0.088    0.027    1.112    0.701   rc_32_reduced1_a.re  C18 C11
    1.537    0.079    0.025    1.096    0.642   rc_32_reduced1_a.re  C11 C18
    1.544    0.088    0.027    1.112    0.704   rc_32_reduced1_a.re  C18 C20
    1.565    0.088    0.027    1.112    0.713   rc_32_reduced1_a.re  C19 C11
    1.565    0.079    0.025    1.096    0.653   rc_32_reduced1_a.re  C11 C19

    0.930    0.076    0.025    1.093    0.493   rc_32_reduced1_a.re  H16 C16
    0.930    0.076    0.025    1.093    0.493   rc_32_reduced1_a.re  H26 C26
    0.930    0.076    0.025    1.093    0.493   rc_32_reduced1_a.re  H15 C15
    0.930    0.076    0.025    1.093    0.493   rc_32_reduced1_a.re  H5 C5
    0.930    0.076    0.025    1.093    0.493   rc_32_reduced1_a.re  H23 C23
    0.930    0.076    0.025    1.093    0.493   rc_32_reduced1_a.re  H14 C14
    0.930    0.076    0.025    1.093    0.493   rc_32_reduced1_a.re  H17 C17
    0.930    0.076    0.025    1.093    0.493   rc_32_reduced1_a.re  H4 C4
    0.930    0.076    0.025    1.093    0.493   rc_32_reduced1_a.re  H6 C6
    0.930    0.076    0.025    1.093    0.493   rc_32_reduced1_a.re  H3 C3
    0.930    0.076    0.025    1.093    0.493   rc_32_reduced1_a.re  H24 C24
    0.930    0.076    0.025    1.093    0.493   rc_32_reduced1_a.re  H22 C22
    0.930    0.076    0.025    1.093    0.493   rc_32_reduced1_a.re  H13 C13
    0.930    0.076    0.025    1.093    0.493   rc_32_reduced1_a.re  H25 C25
    0.930    0.076    0.025    1.093    0.493   rc_32_reduced1_a.re  H2 C2
    0.970    0.094    0.025    1.128    0.476   rc_32_reduced1_a.re  H9B C9
    0.970    0.068    0.028    1.112    0.532   rc_32_reduced1_a.re  H19A C19
    0.970    0.068    0.028    1.112    0.532   rc_32_reduced1_a.re  H19B C19
    0.970    0.078    0.017    1.036    0.375   rc_32_reduced1_a.re  H7B C7
    0.970    0.094    0.025    1.128    0.476   rc_32_reduced1_a.re  H9A C9
    0.970    0.078    0.017    1.036    0.375   rc_32_reduced1_a.re  H7A C7
    0.970    0.068    0.028    1.112    0.532   rc_32_reduced1_a.re  H18B C18
    0.970    0.068    0.028    1.112    0.532   rc_32_reduced1_a.re  H18A C18
    0.980    0.076    0.022    1.116    0.356   rc_32_reduced1_a.re  H8 C8
    0.980    0.053    0.007    0.920    0.490   rc_32_reduced1_a.re  H20 C20

    1.374    0.103    0.016    1.100    0.674   rc_32_reduced1_a.re  N1 C10
    1.413    0.063    0.022    1.110    0.774   rc_32_reduced1_a.re  N1 C12
    1.451    0.087    0.025    1.110    0.765   rc_32_reduced1_a.re  N1 C9

    1.221    0.055    0.013    1.094    0.714   rc_32_reduced1_a.re  O1 C10

    0.930    0.109    0.031    0.893    0.330   rc_32_reduced1_a.re  C16 H16
    0.930    0.132    0.023    0.793    0.310   rc_32_reduced1_a.re  C26 H26
    0.930    0.109    0.031    0.893    0.330   rc_32_reduced1_a.re  C15 H15
    0.930    0.109    0.031    0.893    0.330   rc_32_reduced1_a.re  C5 H5
    0.930    0.109    0.031    0.893    0.330   rc_32_reduced1_a.re  C23 H23
    0.930    0.109    0.031    0.893    0.330   rc_32_reduced1_a.re  C14 H14
    0.930    0.132    0.023    0.793    0.310   rc_32_reduced1_a.re  C17 H17
    0.930    0.109    0.031    0.893    0.330   rc_32_reduced1_a.re  C4 H4
    0.930    0.132    0.023    0.793    0.310   rc_32_reduced1_a.re  C6 H6
    0.930    0.109    0.031    0.893    0.330   rc_32_reduced1_a.re  C3 H3
    0.930    0.109    0.031    0.893    0.330   rc_32_reduced1_a.re  C24 H24
    0.930    0.132    0.023    0.793    0.310   rc_32_reduced1_a.re  C22 H22
    0.930    0.132    0.023    0.793    0.310   rc_32_reduced1_a.re  C13 H13
    0.930    0.109    0.031    0.893    0.330   rc_32_reduced1_a.re  C25 H25
    0.930    0.132    0.023    0.793    0.310   rc_32_reduced1_a.re  C2 H2
    0.970    0.118    0.031    1.128    0.343   rc_32_reduced1_a.re  C9 H9B
    0.970    0.119    0.029    1.112    0.326   rc_32_reduced1_a.re  C19 H19A
    0.970    0.119    0.029    1.112    0.326   rc_32_reduced1_a.re  C19 H19B
    0.970    0.118    0.031    1.128    0.343   rc_32_reduced1_a.re  C9 H9A
    0.970    0.119    0.029    1.112    0.326   rc_32_reduced1_a.re  C18 H18B
    0.970    0.119    0.029    1.112    0.326   rc_32_reduced1_a.re  C18 H18A
    0.980    0.128    0.025    1.106    0.357   rc_32_reduced1_a.re  C8 H8
    0.980    0.116    0.030    1.120    0.325   rc_32_reduced1_a.re  C20 H20

    1.374    0.053    0.032    1.085    0.923   rc_32_reduced1_a.re  C10 N1
    1.413    0.086    0.033    1.128    0.706   rc_32_reduced1_a.re  C12 N1

    1.221    0.205    0.026    1.085    0.694   rc_32_reduced1_a.re  C10 O1

    1.763    0.114    0.027    1.120    0.957   rc_32_reduced1_a.re  C20 S1

    1.408    0.089    0.013    1.083    0.600   rc_32_reduced1_a.re  O3 S1
    1.445    0.066    0.012    1.143    0.604   rc_32_reduced1_a.re  O2 S1

    1.503    0.065    0.025    1.085    1.116   rc_32_reduced1_a.re  C10 C11
    1.510    0.077    0.019    1.106    1.072   rc_32_reduced1_a.re  C8 C7
    1.518    0.075    0.025    1.120    1.137   rc_32_reduced1_a.re  C20 C19
    1.544    0.075    0.025    1.120    1.157   rc_32_reduced1_a.re  C20 C18

    1.451    0.082    0.033    1.128    1.026   rc_32_reduced1_a.re  C9 N1

    1.755    0.102    0.017    1.161    1.015   rc_32_reduced1_a.re  C21 S1


REM  rc_32_reduced1_a.res in P2(1)/n
REM wR2 = 0.168544, GooF = S = 1.12161, Restrained GooF = 1.12161 for all data
REM R1 = 0.075943 for 3971 Fo > 4sig(Fo) and 0.102770 for all 5224 data
REM 292 parameters refined using 0 restraints

END

WGHT      0.0560      4.6128

REM Highest difference peak  0.767,  deepest hole -0.521,  1-sigma level  0.070
Q1    1   0.3135  0.6513  0.5398  11.00000  0.05    0.77
Q2    1   0.5479 -0.0451  0.5476  11.00000  0.05    0.70
Q3    1   0.5625 -0.2764  0.6387  11.00000  0.05    0.64
Q4    1   0.5077  0.0275  0.6651  11.00000  0.05    0.53
Q5    1   0.3589  0.5675  0.4971  11.00000  0.05    0.40
Q6    1   0.3686  0.7718  0.5178  11.00000  0.05    0.37
Q7    1   0.6307 -0.0646  0.6411  11.00000  0.05    0.32
Q8    1   0.6026 -0.1044  0.5945  11.00000  0.05    0.27
Q9    1   0.4244  0.3645  0.8787  11.00000  0.05    0.26
Q10   1   0.3615  0.3514  0.7296  11.00000  0.05    0.25
Q11   1   0.5783 -0.1168  0.6676  11.00000  0.05    0.25
Q12   1   0.4137  0.5286  0.9761  11.00000  0.05    0.24
Q13   1   0.3914  0.6633  0.4665  11.00000  0.05    0.24
Q14   1   0.7198 -0.0793  0.6314  11.00000  0.05    0.23
Q15   1   0.8626  0.1590  0.5988  11.00000  0.05    0.23
Q16   1   0.5670  0.5042  0.6301  11.00000  0.05    0.23
Q17   1   0.3189  0.6128  0.8009  11.00000  0.05    0.23
Q18   1   0.2757  0.4548  0.9405  11.00000  0.05    0.22
Q19   1   0.5411 -0.1591  0.6112  11.00000  0.05    0.22
Q20   1   0.4611  0.2063  0.7772  11.00000  0.05    0.22
;
_shelx_res_checksum              91832
loop_
_space_group_symop_operation_xyz
'x, y, z'
'-x+1/2, y+1/2, -z+1/2'
'-x, -y, -z'
'x-1/2, -y-1/2, z-1/2'
loop_
_atom_site_label
_atom_site_type_symbol
_atom_site_fract_x
_atom_site_fract_y
_atom_site_fract_z
_atom_site_U_iso_or_equiv
_atom_site_adp_type
_atom_site_occupancy
_atom_site_site_symmetry_order
_atom_site_calc_flag
_atom_site_refinement_flags_posn
_atom_site_refinement_flags_adp
_atom_site_refinement_flags_occupancy
_atom_site_disorder_assembly
_atom_site_disorder_group
S1 S 0.56856(9) -0.09020(15) 0.63026(8) 0.0578(4) Uani 1 1 d . . . . .
O1 O 0.3921(4) 0.1747(5) 0.7728(2) 0.0802(13) Uani 1 1 d . . . . .
N1 N 0.3727(3) 0.4453(5) 0.7373(2) 0.0502(10) Uani 1 1 d . . . . .
Se1 Se 0.35973(4) 0.65554(6) 0.51287(3) 0.0562(2) Uani 1 1 d . . . . .
O2 O 0.5437(3) -0.1638(6) 0.6912(3) 0.1067(19) Uani 1 1 d . . . . .
O3 O 0.5576(3) -0.1831(6) 0.5693(3) 0.112(2) Uani 1 1 d . . . . .
C1 C 0.2470(3) 0.5591(6) 0.4709(2) 0.0482(11) Uani 1 1 d . . . . .
C2 C 0.1668(4) 0.6161(8) 0.4884(4) 0.0768(19) Uani 1 1 d . . . . .
H2 H 0.167791 0.689991 0.524456 0.092 Uiso 1 1 calc R U . . .
C3 C 0.0846(5) 0.5625(12) 0.4517(6) 0.108(3) Uani 1 1 d . . . . .
H3 H 0.030217 0.603322 0.462341 0.130 Uiso 1 1 calc R U . . .
C4 C 0.0825(6) 0.4488(12) 0.3993(5) 0.107(3) Uani 1 1 d . . . . .
H4 H 0.027185 0.413527 0.374488 0.129 Uiso 1 1 calc R U . . .
C5 C 0.1623(6) 0.3897(10) 0.3847(4) 0.092(2) Uani 1 1 d . . . . .
H5 H 0.161705 0.311329 0.350331 0.110 Uiso 1 1 calc R U . . .
C6 C 0.2434(4) 0.4439(7) 0.4198(3) 0.0657(15) Uani 1 1 d . . . . .
H6 H 0.297326 0.401943 0.408845 0.079 Uiso 1 1 calc R U . . .
C7 C 0.4192(3) 0.4632(6) 0.5593(2) 0.0489(11) Uani 1 1 d . . . . .
H7A H 0.417274 0.373927 0.526514 0.059 Uiso 1 1 calc R U . . .
H7B H 0.482753 0.489132 0.575700 0.059 Uiso 1 1 calc R U . . .
C8 C 0.3758(3) 0.4064(6) 0.6192(2) 0.0434(10) Uani 1 1 d . . . . .
H8 H 0.312394 0.377895 0.601109 0.052 Uiso 1 1 calc R U . . .
C9 C 0.3745(4) 0.5363(6) 0.6744(2) 0.0520(12) Uani 1 1 d . . . . .
H9A H 0.428420 0.605133 0.678580 0.062 Uiso 1 1 calc R U . . .
H9B H 0.320949 0.605533 0.663573 0.062 Uiso 1 1 calc R U . . .
C10 C 0.3919(4) 0.2817(6) 0.7294(3) 0.0523(12) Uani 1 1 d . . . . .
C11 C 0.4187(3) 0.2582(5) 0.6599(2) 0.0447(11) Uani 1 1 d . . . . .
C12 C 0.3658(3) 0.5275(6) 0.7993(2) 0.0506(12) Uani 1 1 d . . . . .
C13 C 0.3647(4) 0.6969(7) 0.8009(3) 0.0643(15) Uani 1 1 d . . . . .
H13 H 0.366915 0.755708 0.760798 0.077 Uiso 1 1 calc R U . . .
C14 C 0.3605(4) 0.7808(8) 0.8610(3) 0.0724(17) Uani 1 1 d . . . . .
H14 H 0.359803 0.895240 0.861079 0.087 Uiso 1 1 calc R U . . .
C15 C 0.3574(5) 0.6971(9) 0.9199(4) 0.084(2) Uani 1 1 d . . . . .
H15 H 0.354815 0.752804 0.960711 0.101 Uiso 1 1 calc R U . . .
C16 C 0.3580(8) 0.5328(11) 0.9181(4) 0.128(4) Uani 1 1 d . . . . .
H16 H 0.355916 0.474518 0.958346 0.154 Uiso 1 1 calc R U . . .
C17 C 0.3616(7) 0.4474(9) 0.8588(3) 0.106(3) Uani 1 1 d . . . . .
H17 H 0.361112 0.332940 0.859375 0.128 Uiso 1 1 calc R U . . .
C18 C 0.4056(3) 0.0873(6) 0.6265(3) 0.0544(13) Uani 1 1 d . . . . .
H18A H 0.361217 0.084993 0.584530 0.065 Uiso 1 1 calc R U . . .
H18B H 0.393679 0.000907 0.657711 0.065 Uiso 1 1 calc R U . . .
C19 C 0.5240(3) 0.2322(6) 0.6662(3) 0.0509(12) Uani 1 1 d . . . . .
H19A H 0.555787 0.325133 0.650258 0.061 Uiso 1 1 calc R U . . .
H19B H 0.553362 0.196850 0.711347 0.061 Uiso 1 1 calc R U . . .
C20 C 0.5054(3) 0.0934(6) 0.6143(3) 0.0529(12) Uani 1 1 d . . . . .
H20 H 0.508302 0.134075 0.568022 0.063 Uiso 1 1 calc R U . . .
C21 C 0.6828(3) -0.0283(6) 0.6513(3) 0.0477(11) Uani 1 1 d . . . . .
C22 C 0.7213(4) -0.0122(7) 0.7195(3) 0.0630(14) Uani 1 1 d . . . . .
H22 H 0.687532 -0.036107 0.753867 0.076 Uiso 1 1 calc R U . . .
C23 C 0.8106(5) 0.0400(8) 0.7360(4) 0.0775(18) Uani 1 1 d . . . . .
H23 H 0.837096 0.052252 0.781819 0.093 Uiso 1 1 calc R U . . .
C24 C 0.8595(5) 0.0731(9) 0.6858(5) 0.087(2) Uani 1 1 d . . . . .
H24 H 0.919354 0.109503 0.697319 0.105 Uiso 1 1 calc R U . . .
C25 C 0.8219(5) 0.0538(10) 0.6184(4) 0.094(2) Uani 1 1 d . . . . .
H25 H 0.856993 0.073409 0.584404 0.112 Uiso 1 1 calc R U . . .
C26 C 0.7327(4) 0.0056(8) 0.6004(3) 0.0708(16) Uani 1 1 d . . . . .
H26 H 0.706511 -0.003955 0.554445 0.085 Uiso 1 1 calc R U . . .
loop_
_atom_site_aniso_label
_atom_site_aniso_U_11
_atom_site_aniso_U_22
_atom_site_aniso_U_33
_atom_site_aniso_U_23
_atom_site_aniso_U_13
_atom_site_aniso_U_12
S1 0.0513(7) 0.0291(6) 0.0865(10) -0.0073(6) -0.0078(7) 0.0040(5)
O1 0.136(4) 0.044(2) 0.066(2) 0.0187(19) 0.032(3) 0.017(2)
N1 0.068(3) 0.035(2) 0.051(2) 0.0014(18) 0.019(2) 0.0056(19)
Se1 0.0684(4) 0.0397(3) 0.0587(3) 0.0115(2) 0.0054(2) 0.0038(2)
O2 0.081(3) 0.071(3) 0.163(5) 0.054(3) 0.006(3) -0.001(2)
O3 0.080(3) 0.087(4) 0.156(5) -0.074(3) -0.022(3) 0.013(3)
C1 0.057(3) 0.039(3) 0.051(3) 0.014(2) 0.015(2) 0.012(2)
C2 0.070(4) 0.066(4) 0.102(5) 0.009(4) 0.038(4) 0.016(3)
C3 0.054(4) 0.098(6) 0.178(9) 0.036(6) 0.034(5) 0.013(4)
C4 0.083(6) 0.098(7) 0.128(7) 0.034(6) -0.019(5) -0.009(5)
C5 0.093(5) 0.095(6) 0.079(5) 0.003(4) -0.016(4) -0.004(4)
C6 0.072(4) 0.064(4) 0.059(3) -0.005(3) 0.006(3) 0.014(3)
C7 0.052(3) 0.047(3) 0.047(3) 0.004(2) 0.006(2) 0.011(2)
C8 0.045(3) 0.037(2) 0.046(3) 0.000(2) 0.004(2) 0.005(2)
C9 0.069(3) 0.037(2) 0.052(3) 0.002(2) 0.017(2) 0.006(2)
C10 0.064(3) 0.038(3) 0.056(3) 0.013(2) 0.012(2) 0.009(2)
C11 0.053(3) 0.033(2) 0.048(3) -0.001(2) 0.008(2) 0.008(2)
C12 0.057(3) 0.051(3) 0.048(3) -0.002(2) 0.021(2) 0.004(2)
C13 0.077(4) 0.049(3) 0.071(4) -0.004(3) 0.025(3) 0.005(3)
C14 0.073(4) 0.063(4) 0.085(5) -0.020(3) 0.024(3) 0.000(3)
C15 0.112(6) 0.080(5) 0.066(4) -0.019(4) 0.029(4) 0.005(4)
C16 0.249(12) 0.084(6) 0.067(5) 0.003(4) 0.071(6) 0.011(7)
C17 0.214(10) 0.053(4) 0.068(4) 0.004(3) 0.066(5) 0.003(5)
C18 0.057(3) 0.037(2) 0.065(3) -0.005(2) -0.001(2) 0.001(2)
C19 0.060(3) 0.033(2) 0.055(3) -0.007(2) -0.002(2) 0.002(2)
C20 0.056(3) 0.041(3) 0.060(3) -0.002(2) 0.004(2) 0.007(2)
C21 0.052(3) 0.032(2) 0.054(3) -0.004(2) -0.005(2) 0.004(2)
C22 0.062(3) 0.054(3) 0.068(4) -0.009(3) -0.002(3) 0.003(3)
C23 0.072(4) 0.074(4) 0.078(4) -0.016(4) -0.012(3) 0.004(3)
C24 0.064(4) 0.067(4) 0.123(6) -0.010(4) -0.009(4) -0.006(3)
C25 0.083(5) 0.088(5) 0.116(6) 0.033(5) 0.036(5) -0.013(4)
C26 0.075(4) 0.070(4) 0.063(4) 0.015(3) -0.001(3) 0.002(3)
loop_
_atom_type_symbol
_atom_type_description
_atom_type_scat_dispersion_real
_atom_type_scat_dispersion_imag
_atom_type_scat_source
C C 0.0033 0.0016 'International Tables Vol C Tables 4.2.6.8 and 6.1.1.4'
H H 0.0000 0.0000 'International Tables Vol C Tables 4.2.6.8 and 6.1.1.4'
N N 0.0061 0.0033 'International Tables Vol C Tables 4.2.6.8 and 6.1.1.4'
O O 0.0106 0.0060 'International Tables Vol C Tables 4.2.6.8 and 6.1.1.4'
S S 0.1246 0.1234 'International Tables Vol C Tables 4.2.6.8 and 6.1.1.4'
Se Se -0.0929 2.2259 'International Tables Vol C Tables 4.2.6.8 and 6.1.1.4'
loop_
_geom_angle_atom_site_label_1
_geom_angle_atom_site_label_2
_geom_angle_atom_site_label_3
_geom_angle
_geom_angle_site_symmetry_1
_geom_angle_site_symmetry_3
_geom_angle_publ_flag
O3 S1 O2 118.7(4) . . ?
O3 S1 C21 109.0(3) . . ?
O2 S1 C21 107.1(3) . . ?
O3 S1 C20 108.6(3) . . ?
O2 S1 C20 107.2(3) . . ?
C21 S1 C20 105.4(2) . . ?
C10 N1 C12 127.1(4) . . ?
C10 N1 C9 111.2(4) . . ?
C12 N1 C9 121.0(4) . . ?
C1 Se1 C7 99.9(2) . . ?
C6 C1 C2 118.9(6) . . ?
C6 C1 Se1 121.6(4) . . ?
C2 C1 Se1 119.3(5) . . ?
C1 C2 C3 119.4(7) . . ?
C4 C3 C2 120.7(7) . . ?
C5 C4 C3 118.9(8) . . ?
C4 C5 C6 120.8(8) . . ?
C5 C6 C1 121.3(6) . . ?
C8 C7 Se1 113.2(3) . . ?
C7 C8 C9 114.0(4) . . ?
C7 C8 C11 117.3(4) . . ?
C9 C8 C11 102.9(4) . . ?
N1 C9 C8 105.4(4) . . ?
O1 C10 N1 125.8(5) . . ?
O1 C10 C11 125.5(5) . . ?
N1 C10 C11 108.6(4) . . ?
C10 C11 C8 103.3(4) . . ?
C10 C11 C18 118.2(4) . . ?
C8 C11 C18 118.3(4) . . ?
C10 C11 C19 111.0(4) . . ?
C8 C11 C19 118.2(4) . . ?
C18 C11 C19 88.1(3) . . ?
C17 C12 C13 117.3(5) . . ?
C17 C12 N1 123.0(5) . . ?
C13 C12 N1 119.7(5) . . ?
C12 C13 C14 121.1(6) . . ?
C15 C14 C13 120.3(6) . . ?
C16 C15 C14 118.5(6) . . ?
C15 C16 C17 122.1(7) . . ?
C12 C17 C16 120.8(7) . . ?
C11 C18 C20 88.9(4) . . ?
C20 C19 C11 88.8(4) . . ?
C19 C20 C18 89.5(4) . . ?
C19 C20 S1 118.5(4) . . ?
C18 C20 S1 116.3(4) . . ?
C26 C21 C22 120.5(5) . . ?
C26 C21 S1 120.3(4) . . ?
C22 C21 S1 119.1(4) . . ?
C21 C22 C23 119.2(6) . . ?
C24 C23 C22 120.1(6) . . ?
C23 C24 C25 120.6(7) . . ?
C24 C25 C26 120.5(7) . . ?
C21 C26 C25 119.0(6) . . ?
loop_
_geom_bond_atom_site_label_1
_geom_bond_atom_site_label_2
_geom_bond_distance
_geom_bond_site_symmetry_2
_geom_bond_publ_flag
S1 O3 1.408(5) . ?
S1 O2 1.445(5) . ?
S1 C21 1.755(5) . ?
S1 C20 1.763(5) . ?
O1 C10 1.221(6) . ?
N1 C10 1.374(6) . ?
N1 C12 1.413(6) . ?
N1 C9 1.451(6) . ?
Se1 C1 1.911(5) . ?
Se1 C7 1.949(5) . ?
C1 C6 1.373(7) . ?
C1 C2 1.377(7) . ?
C2 C3 1.385(11) . ?
C3 C4 1.383(12) . ?
C4 C5 1.356(12) . ?
C5 C6 1.360(9) . ?
C7 C8 1.510(7) . ?
C8 C9 1.520(6) . ?
C8 C11 1.528(6) . ?
C10 C11 1.503(7) . ?
C11 C18 1.537(7) . ?
C11 C19 1.565(7) . ?
C12 C17 1.354(8) . ?
C12 C13 1.377(7) . ?
C13 C14 1.379(8) . ?
C14 C15 1.356(9) . ?
C15 C16 1.336(10) . ?
C16 C17 1.371(9) . ?
C18 C20 1.544(7) . ?
C19 C20 1.518(7) . ?
C21 C26 1.373(8) . ?
C21 C22 1.380(7) . ?
C22 C23 1.381(8) . ?
C23 C24 1.351(10) . ?
C24 C25 1.366(10) . ?
C25 C26 1.373(9) . ?
loop_
_shelx_include_file_name
_shelx_include_file
_shelx_include_file_checksum
rc_32_reduced1_a.bodd
;

!ATOM S1!

!ATOM O1!
!INVARIOMNAME O2c[1c1c]_0!
BEDE O1 C10 0.714 20.329 30.186 40.559
LONE O1 9 20.833 30.323 40.559 0.444  98.31

!ATOM N1!
!INVARIOMNAME N2c@6c1c_0!
BEDE N1 C10 0.674 20.617 30.218 40.562
BEDE N1 C12 0.774 20.378 30.304 40.567
BEDE N1 C9 0.765 20.521 30.342 40.567
LONE N1 6 20.722 30.339 40.567 0.459

!ATOM SE1!

!ATOM O2!
!INVARIOMNAME O2s[2o1c1c]_0!
BEDE O2 S1 0.604 20.393 30.167 40.584
LONE O2 9 20.814 30.309 40.584 0.318 177.27

!ATOM O3!
!INVARIOMNAME O2s[2s1o1o]_0!
BEDE O3 S1 0.600 20.533 30.182 40.553
LONE O3 9 21.107 30.326 40.553 0.332 147.46

!ATOM C1!

!ATOM C2!
!INVARIOMNAME 6-C#6c[#6c1br]#6c[#6c1c]1h_0!
BEDE C2 C1 0.785 20.409 30.078 40.405
BEDE C2 C3 0.888 20.590 30.108 40.405
BEDE C2 H2 0.310 20.788 30.319 40.405

!ATOM H2!
!INVARIOMNAME H@6c&6-C#6c[2s#6n]#6c[#6n1h]1h_0!
BEDE H2 C2 0.493 20.455 30.341 40.558

!ATOM C3!
!INVARIOMNAME 6-C#6c[#6c1br]#6c[#6c1br]1h_0!
BEDE C3 H3 0.330 20.652 30.426 40.456
BEDE C3 C2 0.923 20.597 30.119 40.456
BEDE C3 C4 0.920 20.597 30.119 40.456

!ATOM H3!
!INVARIOMNAME H@6c&6-C#6c[2s#6n]#6c[#6n1h]1h_0!
BEDE H3 C3 0.493 20.455 30.341 40.558

!ATOM C4!
!INVARIOMNAME 6-C#6c[#6c1br]#6c[#6c1br]1h_0!
BEDE C4 H4 0.330 20.652 30.426 40.456
BEDE C4 C3 0.920 20.597 30.119 40.456
BEDE C4 C5 0.900 20.597 30.119 40.456

!ATOM H4!
!INVARIOMNAME H@6c&6-C#6c[2s#6n]#6c[#6n1h]1h_0!
BEDE H4 C4 0.493 20.455 30.341 40.558

!ATOM C5!
!INVARIOMNAME 6-C#6c[#6c1br]#6c[#6c1br]1h_0!
BEDE C5 H5 0.330 20.652 30.426 40.456
BEDE C5 C4 0.900 20.597 30.119 40.456
BEDE C5 C6 0.908 20.597 30.119 40.456

!ATOM H5!
!INVARIOMNAME H@6c&6-C#6c[2s#6n]#6c[#6n1h]1h_0!
BEDE H5 C5 0.493 20.455 30.341 40.558

!ATOM C6!
!INVARIOMNAME 6-C#6c[#6c1br]#6c[#6c1c]1h_0!
BEDE C6 C1 0.780 20.409 30.078 40.405
BEDE C6 C5 0.873 20.590 30.108 40.405
BEDE C6 H6 0.310 20.788 30.319 40.405

!ATOM H6!
!INVARIOMNAME H@6c&6-C#6c[2s#6n]#6c[#6n1h]1h_0!
BEDE H6 C6 0.493 20.455 30.341 40.558

!ATOM C7!

!ATOM H7A!
!INVARIOMNAME H1c[1f1f1c]&C1f1f1c1h_0!
BEDE H7A C7 0.375 20.466 30.229 40.529

!ATOM H7B!
!INVARIOMNAME H1c[1f1f1c]&C1f1f1c1h_0!
BEDE H7B C7 0.375 20.466 30.229 40.529

!ATOM C8!
!INVARIOMNAME 3-C#3c[#3c1c1c]#3c[#3c1c1c]1c1h_0!
BEDE C8 H8 0.357 20.767 30.347 40.565
BEDE C8 C7 1.072 20.463 30.265 40.565
BEDE C8 C9 0.787 20.503 30.386 40.565
BEDE C8 C11 0.792 20.503 30.386 40.565

!ATOM H8!
!INVARIOMNAME H1c[@5c1c1c]&C@5c1c1c1h_0!
BEDE H8 C8 0.356 20.456 30.306 40.570

!ATOM C9!
!INVARIOMNAME C1n1c1h1h_0!
BEDE C9 H9A 0.343 20.708 30.435 40.576
BEDE C9 H9B 0.343 20.708 30.435 40.576
BEDE C9 N1 1.026 20.488 30.461 40.576
BEDE C9 C8 0.855 20.517 30.317 40.576

!ATOM H9A!
!INVARIOMNAME H1c[1n1c1h]&C1n1c1h1h_0!
BEDE H9A C9 0.476 20.559 30.346 40.576

!ATOM H9B!
!INVARIOMNAME H1c[1n1c1h]&C1n1c1h1h_0!
BEDE H9B C9 0.476 20.559 30.346 40.576

!ATOM C10!
!INVARIOMNAME 4-C2o#4n[#4c1c]#4c[#4c1h1h]_0!
BEDE C10 C11 1.116 20.388 30.340 40.554
BEDE C10 N1 0.923 20.314 30.445 40.554
BEDE C10 O1 0.694 21.224 30.356 40.554

!ATOM C11!
!INVARIOMNAME C1c1c1c1c_0!
BEDE C11 C8 0.638 20.471 30.349 40.560
BEDE C11 C10 0.629 20.471 30.349 40.560
BEDE C11 C18 0.642 20.471 30.349 40.560
BEDE C11 C19 0.653 20.471 30.349 40.560

!ATOM C12!
!INVARIOMNAME 6-C#6c[#6c1c]#6c[#6c1c]1n_0!
BEDE C12 N1 0.706 20.516 30.451 40.576
BEDE C12 C13 0.670 20.747 30.250 40.576
BEDE C12 C17 0.658 20.747 30.250 40.576

!ATOM C13!
!INVARIOMNAME 6-C#6c[#6c1br]#6c[#6c1c]1h_0!
BEDE C13 C12 0.781 20.409 30.078 40.405
BEDE C13 C14 0.886 20.590 30.108 40.405
BEDE C13 H13 0.310 20.788 30.319 40.405

!ATOM H13!
!INVARIOMNAME H@6c&6-C#6c[2s#6n]#6c[#6n1h]1h_0!
BEDE H13 C13 0.493 20.455 30.341 40.558

!ATOM C14!
!INVARIOMNAME 6-C#6c[#6c1br]#6c[#6c1br]1h_0!
BEDE C14 H14 0.330 20.652 30.426 40.456
BEDE C14 C13 0.921 20.597 30.119 40.456
BEDE C14 C15 0.902 20.597 30.119 40.456

!ATOM H14!
!INVARIOMNAME H@6c&6-C#6c[2s#6n]#6c[#6n1h]1h_0!
BEDE H14 C14 0.493 20.455 30.341 40.558

!ATOM C15!
!INVARIOMNAME 6-C#6c[#6c1br]#6c[#6c1br]1h_0!
BEDE C15 H15 0.330 20.652 30.426 40.456
BEDE C15 C14 0.902 20.597 30.119 40.456
BEDE C15 C16 0.890 20.597 30.119 40.456

!ATOM H15!
!INVARIOMNAME H@6c&6-C#6c[2s#6n]#6c[#6n1h]1h_0!
BEDE H15 C15 0.493 20.455 30.341 40.558

!ATOM C16!
!INVARIOMNAME 6-C#6c[#6c1br]#6c[#6c1br]1h_0!
BEDE C16 H16 0.330 20.652 30.426 40.456
BEDE C16 C15 0.890 20.597 30.119 40.456
BEDE C16 C17 0.914 20.597 30.119 40.456

!ATOM H16!
!INVARIOMNAME H@6c&6-C#6c[2s#6n]#6c[#6n1h]1h_0!
BEDE H16 C16 0.493 20.455 30.341 40.558

!ATOM C17!
!INVARIOMNAME 6-C#6c[#6c1br]#6c[#6c1c]1h_0!
BEDE C17 C12 0.767 20.409 30.078 40.405
BEDE C17 C16 0.880 20.590 30.108 40.405
BEDE C17 H17 0.310 20.788 30.319 40.405

!ATOM H17!
!INVARIOMNAME H@6c&6-C#6c[2s#6n]#6c[#6n1h]1h_0!
BEDE H17 C17 0.493 20.455 30.341 40.558

!ATOM C18!
!INVARIOMNAME C1c1c1h1h_0!
BEDE C18 H18A 0.326 20.709 30.398 40.568
BEDE C18 H18B 0.326 20.709 30.398 40.568
BEDE C18 C11 0.701 20.523 30.369 40.568
BEDE C18 C20 0.704 20.523 30.369 40.568

!ATOM H18A!
!INVARIOMNAME H1c[1c1c1h]&C1c1c1h1h_0!
BEDE H18A C18 0.532 20.409 30.382 40.568

!ATOM H18B!
!INVARIOMNAME H1c[1c1c1h]&C1c1c1h1h_0!
BEDE H18B C18 0.532 20.409 30.382 40.568

!ATOM C19!
!INVARIOMNAME C1c1c1h1h_0!
BEDE C19 H19A 0.326 20.709 30.398 40.568
BEDE C19 H19B 0.326 20.709 30.398 40.568
BEDE C19 C11 0.713 20.523 30.369 40.568
BEDE C19 C20 0.692 20.523 30.369 40.568

!ATOM H19A!
!INVARIOMNAME H1c[1c1c1h]&C1c1c1h1h_0!
BEDE H19A C19 0.532 20.409 30.382 40.568

!ATOM H19B!
!INVARIOMNAME H1c[1c1c1h]&C1c1c1h1h_0!
BEDE H19B C19 0.532 20.409 30.382 40.568

!ATOM C20!
!INVARIOMNAME C1s[1c]1c1c1h_0!
BEDE C20 H20 0.325 20.695 30.408 40.572
BEDE C20 S1 0.957 20.681 30.368 40.572
BEDE C20 C18 1.157 20.449 30.344 40.572
BEDE C20 C19 1.137 20.449 30.344 40.572

!ATOM H20!
!INVARIOMNAME H@3c&3-C#3c[#3c@6n1h]#3c[#3c1h1h]1br1h_0!
BEDE H20 C20 0.490 20.314 30.091 40.470

!ATOM C21!
!INVARIOMNAME 6-C#6c[#6c1c]#6c[#6c1c]1s[2o2o1c]_0!
BEDE C21 S1 1.015 20.611 30.239 40.593
BEDE C21 C22 0.864 20.560 30.292 40.593
BEDE C21 C26 0.859 20.560 30.292 40.593

!ATOM C22!
!INVARIOMNAME 6-C#6c[#6c1br]#6c[#6c1c]1h_0!
BEDE C22 C21 0.783 20.409 30.078 40.405
BEDE C22 C23 0.887 20.590 30.108 40.405
BEDE C22 H22 0.310 20.788 30.319 40.405

!ATOM H22!
!INVARIOMNAME H@6c&6-C#6c[2s#6n]#6c[#6n1h]1h_0!
BEDE H22 C22 0.493 20.455 30.341 40.558

!ATOM C23!
!INVARIOMNAME 6-C#6c[#6c1br]#6c[#6c1br]1h_0!
BEDE C23 H23 0.330 20.652 30.426 40.456
BEDE C23 C22 0.922 20.597 30.119 40.456
BEDE C23 C24 0.899 20.597 30.119 40.456

!ATOM H23!
!INVARIOMNAME H@6c&6-C#6c[2s#6n]#6c[#6n1h]1h_0!
BEDE H23 C23 0.493 20.455 30.341 40.558

!ATOM C24!
!INVARIOMNAME 6-C#6c[#6c1br]#6c[#6c1br]1h_0!
BEDE C24 H24 0.330 20.652 30.426 40.456
BEDE C24 C23 0.899 20.597 30.119 40.456
BEDE C24 C25 0.910 20.597 30.119 40.456

!ATOM H24!
!INVARIOMNAME H@6c&6-C#6c[2s#6n]#6c[#6n1h]1h_0!
BEDE H24 C24 0.493 20.455 30.341 40.558

!ATOM C25!
!INVARIOMNAME 6-C#6c[#6c1br]#6c[#6c1br]1h_0!
BEDE C25 H25 0.330 20.652 30.426 40.456
BEDE C25 C24 0.910 20.597 30.119 40.456
BEDE C25 C26 0.916 20.597 30.119 40.456

!ATOM H25!
!INVARIOMNAME H@6c&6-C#6c[2s#6n]#6c[#6n1h]1h_0!
BEDE H25 C25 0.493 20.455 30.341 40.558

!ATOM C26!
!INVARIOMNAME 6-C#6c[#6c1br]#6c[#6c1c]1h_0!
BEDE C26 C21 0.778 20.409 30.078 40.405
BEDE C26 C25 0.881 20.590 30.108 40.405
BEDE C26 H26 0.310 20.788 30.319 40.405

!ATOM H26!
!INVARIOMNAME H@6c&6-C#6c[2s#6n]#6c[#6n1h]1h_0!
BEDE H26 C26 0.493 20.455 30.341 40.558
;
91538
