#------------------------------------------------------------------------------
#$Date: 2024-02-05 14:09:55 +0200 (Mon, 05 Feb 2024) $
#$Revision: 289697 $
#$URL: file:///home/coder/svn-repositories/cod/cif/1/57/04/1570446.cif $
#------------------------------------------------------------------------------
#
# This file is available in the Crystallography Open Database (COD),
# http://www.crystallography.net/
#
# All data on this site have been placed in the public domain by the
# contributors.
#
data_1570446
loop_
_publ_author_name
'Sacharczuk, Natalia'
'Olejniczak, Anna'
'Bujak, Maciej'
'Dziubek, Kamil Filip'
'Katrusiak, Andrzej'
'Podsiad&#x142;o, Marcin'
_publ_section_title
;
 Conformation-aggregation interplay in the simplest aliphatic ethers
 probed under high pressure.
;
_journal_issue                   'Pt 1'
_journal_name_full               IUCrJ
_journal_page_first              57
_journal_page_last               61
_journal_paper_doi               10.1107/S2052252523009995
_journal_volume                  11
_journal_year                    2024
_chemical_formula_moiety         'C4 H10 O'
_chemical_formula_sum            'C4 H10 O'
_chemical_formula_weight         74.12
_chemical_name_systematic        'diethyl ether'
_space_group_crystal_system      triclinic
_space_group_IT_number           2
_space_group_name_Hall           '-P 1'
_space_group_name_H-M_alt        'P -1'
_atom_sites_solution_hydrogens   geom
_atom_sites_solution_primary     dual
_audit_creation_method
;
Olex2 1.5
(compiled 2022.04.07 svn.rca3783a0 for OlexSys, GUI svn.r6498)
;
_cell_angle_alpha                97.43(5)
_cell_angle_beta                 102.91(6)
_cell_angle_gamma                97.15(5)
_cell_formula_units_Z            2
_cell_length_a                   5.072(3)
_cell_length_b                   5.629(2)
_cell_length_c                   7.215(5)
_cell_measurement_reflns_used    822
_cell_measurement_temperature    295(2)
_cell_measurement_theta_max      27.731
_cell_measurement_theta_min      3.697
_cell_volume                     196.6(2)
_computing_cell_refinement       'CrysAlisPro 1.171.42.49 (Rigaku OD, 2022)'
_computing_data_collection       'CrysAlisPro 1.171.42.49 (Rigaku OD, 2022)'
_computing_data_reduction        'CrysAlisPro 1.171.42.49 (Rigaku OD, 2022)'
_computing_molecular_graphics    'Olex2 1.5 (Dolomanov et al., 2009)'
_computing_publication_material  'Olex2 1.5 (Dolomanov et al., 2009)'
_computing_structure_refinement  'SHELXL 2018/3 (Sheldrick, 2015)'
_computing_structure_solution    'SHELXT 2018/2 (Sheldrick, 2018)'
_diffrn_ambient_environment      'diamond-anvil cell'
_diffrn_ambient_pressure         3700000
_diffrn_ambient_temperature      295(2)
_diffrn_measured_fraction_theta_full 0.250
_diffrn_measured_fraction_theta_max 0.213
_diffrn_measurement_device_type  'KUMA KM4-CCD, Eos'
_diffrn_measurement_method       '\f- and \w-scans'
_diffrn_radiation_type           MoK\a
_diffrn_radiation_wavelength     0.71073
_diffrn_reflns_av_R_equivalents  0.0383
_diffrn_reflns_av_unetI/netI     0.0214
_diffrn_reflns_Laue_measured_fraction_full 0.250
_diffrn_reflns_Laue_measured_fraction_max 0.213
_diffrn_reflns_limit_h_max       5
_diffrn_reflns_limit_h_min       -5
_diffrn_reflns_limit_k_max       7
_diffrn_reflns_limit_k_min       -7
_diffrn_reflns_limit_l_max       7
_diffrn_reflns_limit_l_min       -7
_diffrn_reflns_number            1025
_diffrn_reflns_point_group_measured_fraction_full 0.250
_diffrn_reflns_point_group_measured_fraction_max 0.213
_diffrn_reflns_theta_full        25.242
_diffrn_reflns_theta_max         27.731
_diffrn_reflns_theta_min         3.697
_exptl_absorpt_coefficient_mu    0.086
_exptl_absorpt_correction_T_max  1.00000
_exptl_absorpt_correction_T_min  0.21547
_exptl_absorpt_correction_type   multi-scan
_exptl_absorpt_process_details
;
CrysAlisPro 1.171.42.49 (Rigaku Oxford Diffraction, 2022)
Empirical absorption correction using spherical harmonics,
implemented in SCALE3 ABSPACK scaling algorithm.
;
_exptl_crystal_colour            colourless
_exptl_crystal_density_diffrn    1.252
_exptl_crystal_description       disc
_exptl_crystal_F_000             84
_exptl_crystal_size_max          0.38
_exptl_crystal_size_mid          0.38
_exptl_crystal_size_min          0.21
_refine_diff_density_max         0.086
_refine_diff_density_min         -0.102
_refine_diff_density_rms         0.031
_refine_ls_extinction_method     none
_refine_ls_goodness_of_fit_ref   1.166
_refine_ls_hydrogen_treatment    constr
_refine_ls_matrix_type           full
_refine_ls_number_parameters     23
_refine_ls_number_reflns         199
_refine_ls_number_restraints     0
_refine_ls_restrained_S_all      1.166
_refine_ls_R_factor_all          0.0553
_refine_ls_R_factor_gt           0.0489
_refine_ls_shift/su_max          0.000
_refine_ls_shift/su_mean         0.000
_refine_ls_structure_factor_coef Fsqd
_refine_ls_weighting_details
'w=1/[\s^2^(Fo^2^)+(0.0907P)^2^+0.0311P] where P=(Fo^2^+2Fc^2^)/3'
_refine_ls_weighting_scheme      calc
_refine_ls_wR_factor_gt          0.1344
_refine_ls_wR_factor_ref         0.1407
_reflns_Friedel_coverage         0.000
_reflns_number_gt                177
_reflns_number_total             199
_reflns_threshold_expression     'I > 2\s(I)'
_cod_data_source_file            lq5055.cif
_cod_data_source_block           diethyl_ether_phase_delta_3_70GPa
_cod_depositor_comments
'Adding full bibliography for 1570433--1570452.cif.'
_cod_database_code               1570446
_shelx_shelxl_version_number     2018/3
_shelx_space_group_comment
;
The symmetry employed for this shelxl refinement is uniquely defined
by the following loop, which should always be used as a source of
symmetry information in preference to the above space-group names.
They are only intended as comments.
;
_exptl_absorpt_special_details
;
Data were collected at room temperature (295(2) K) and pressure of 3.70(2) GPa
(3700000 kPa).
;
_olex2_refinement_description
;
1. Fixed Uiso
 At 1.2 times of:
  All C(H,H) groups
 At 1.5 times of:
  All C(H,H,H) groups
2.a Secondary CH2 refined with riding coordinates:
 C1(H11,H12), C3(H31,H32)
2.b Idealised Me refined as rotating group:
 C2(H21,H23,H22), C4(H41,H43,H42)
;
_shelx_res_file
;
TITL eter37kbar in P-1
    kamil37.res
    created by SHELXL-2018/3 at 15:03:01 on 22-Dec-2022
REM P-1 (#2 in standard setting)
CELL 0.71073 5.071698 5.628571 7.215316 97.4297 102.9122 97.1536
ZERR 2 0.003448 0.002469 0.004675 0.0472 0.0565 0.0487
LATT 1
SFAC C H O
UNIT 8 20 2

L.S. 50
PLAN  10
TEMP 25
CONF
BOND
MORE -1
BOND $H
fmap 2
acta
REM <olex2.extras>
REM <HklSrc "%.\\Kamil37.hkl">
REM </olex2.extras>

WGHT    0.090700    0.031100
FVAR      32.91677
O1    3    0.500265    0.206259    0.318550    11.00000    0.02397
C1    1    0.544040    0.437907    0.261697    11.00000    0.02243
AFIX  23
H11   2    0.619886    0.424228    0.149405    11.00000   -1.20000
H12   2    0.674185    0.549334    0.365025    11.00000   -1.20000
AFIX   0
C2    1    0.285334    0.531458    0.216592    11.00000    0.02572
AFIX 137
H21   2    0.164595    0.431191    0.104563    11.00000   -1.50000
H23   2    0.319056    0.694628    0.191837    11.00000   -1.50000
H22   2    0.202190    0.530086    0.323708    11.00000   -1.50000
AFIX   0
C3    1    0.745273    0.099127    0.360591    11.00000    0.02533
AFIX  23
H31   2    0.719288   -0.027435    0.437150    11.00000   -1.20000
H32   2    0.895743    0.221737    0.436015    11.00000   -1.20000
AFIX   0
C4    1    0.818435   -0.008557    0.177278    11.00000    0.02669
AFIX 137
H41   2    0.679656   -0.142617    0.109732    11.00000   -1.50000
H43   2    0.991835   -0.064044    0.210200    11.00000   -1.50000
H42   2    0.829900    0.113155    0.096428    11.00000   -1.50000
AFIX   0
HKLF 4




REM  eter37kbar in P-1
REM wR2 = 0.1407, GooF = S = 1.166, Restrained GooF = 1.166 for all data
REM R1 = 0.0489 for 177 Fo > 4sig(Fo) and 0.0553 for all 199 data
REM 23 parameters refined using 0 restraints

END

WGHT      0.0907      0.0311

REM Highest difference peak  0.086,  deepest hole -0.102,  1-sigma level  0.031
Q1    1   0.9567  0.0628  0.1265  11.00000  0.05    0.09
Q2    1   0.7416  0.0982  0.3081  11.00000  0.05    0.08
Q3    1   1.1660  0.0980  0.2177  11.00000  0.05    0.08
Q4    1   0.5077  0.4432  0.1548  11.00000  0.05    0.08
Q5    1   0.4612  0.4414  0.1218  11.00000  0.05    0.08
Q6    1   0.4120  0.7274  0.4044  11.00000  0.05    0.07
Q7    1   0.5025  0.2764  0.5258  11.00000  0.05    0.07
Q8    1   0.7014  0.2130  0.5227  11.00000  0.05    0.07
Q9    1   0.2064  0.6110  0.0615  11.00000  0.05    0.07
Q10   1   0.8004 -0.1413  0.6109  11.00000  0.05    0.07
;
_shelx_res_checksum              25090
_shelx_hkl_file
;
   0  -1   0 3727.51  125.79
   0  -1   0 3926.87  132.70
   0  -1   0 3892.63  134.02
   0   1   1 449990.   1570.
   0  -1  -1 449642.   1563.
   0  -2   1 233295.   1420.
   0  -2   1 221955.   1327.
   0  -2   0 215920.   1125.
   0   2   0 238913.   1054.
   0   2   0 227324.   1035.
   0  -2   0 208331.   1134.
   0  -2   0 224417.    975.
   0  -2   0 242093.   1118.
   0  -2   0 212667.   1135.
   0  -2  -1  420.06  128.12
   0   2   1  361.08  173.45
   0  -3   121426.13  774.41
   0  -3   121440.13  768.08
   0   3  -121792.05  551.37
   0  -3   121936.64  738.35
   0   3  -121478.33  765.32
   0   3  -121184.66  859.70
   0  -3   092119.43 1125.83
   0   3   095555.73 1016.33
   0   3   094516.91 1148.92
   0  -3   0 101230.    959.
   0  -3   094851.56 1171.09
   0  -3   096789.23 1174.19
   0  -3  -115178.39  729.93
   0  -3  -115355.63  511.89
   0  -3  -114601.73  667.75
   0   3   115737.43  723.34
   0  -3  -117571.94  678.02
   0   3   118492.21  698.05
   0   3   115176.92  717.26
   0  -3  -114565.67  676.39
   0   3   229694.91 1071.40
   0  -3  -230227.43 1058.83
   0  -3  -233416.16  992.89
   0  -3  -230238.55 1067.50
   0  -3  -232783.35  749.93
   0  -4   118513.15  962.38
   0  -4   117892.00  960.35
   0  -4   117966.81  843.45
   0   4  -116244.17  850.70
   0   4  -115690.08  980.95
   0   4   033249.95  956.16
   0  -4   036426.09 1054.34
   0   4   040054.54  963.24
   0  -4   034796.41  865.42
   0   4   029949.08 1112.85
   0  -4   036754.76 1150.92
   0  -4   033023.28 1054.17
   0  -4   032057.65 1066.59
   0   4   031172.50 1070.90
   0   4   130061.16  976.26
   0   4   135869.80 1168.18
   0   4   137467.93 1221.24
   0  -4  -138154.71 1043.62
   0  -4  -132351.79 1207.58
   0  -4  -133647.74 1126.74
   0  -4  -133722.05 1092.14
   0   4   234803.74 1339.18
   0  -4  -233583.27 1288.39
   0  -4  -234793.02 1360.76
   0  -4  -231534.66 1250.29
   0   4   237811.11 1441.04
   0  -5   1 1830.09  686.44
   0  -5   1 1393.72  578.92
   0   5  -1  616.11  444.33
   0   5  -1  718.58  514.84
   0  -5   0 8823.12 1015.66
   0   5   0 8427.58 1052.04
   0   5   0 8056.50  907.44
   0  -5   0 7944.69  951.68
   0  -5   0 7924.98 1003.23
   0   5   0 7958.67 1018.97
   0   5   1  292.33  409.97
   0  -5  -1  277.99  416.79
   0  -5  -2  286.52  310.09
   0  -5  -2  471.54  484.59
   0   5   2  435.14  497.33
   0   6  -110828.72 1235.93
   0   6   0  195.76  464.38
   0  -6   0  404.18  457.06
   0   6   0  312.10  480.12
   0  -6   0  310.05  482.42
   0  -6  -1  969.11  893.92
   0   6   1 1021.33  810.00
   0   6   1  648.05  573.59
   0   6   1  479.59  611.73
   0  -6  -1  497.54  549.81
   0  -6  -1  750.99  718.47
   0   6   2 1026.62  739.25
   0  -6  -2  711.27  695.96
   0  -7   0  373.78  435.02
   0   7   0  423.52  789.10
   0  -7   0  424.98  597.41
   0  -7   0  410.80  723.43
   0   7   1 8802.89 1336.68
   0   7   1 8119.65 1322.74
  -1   7   1 1308.37  743.38
  -1   7   1 1912.23  967.89
   1  -6  -3  575.60  671.83
   1  -6  -3  504.28  648.19
  -1   6   3  156.67  362.56
  -1   6   3  819.36  687.74
   1  -6  -254274.98 2125.79
  -1   6   260135.24 2130.05
   1  -6  -255544.35 1958.23
  -1   6   259516.47 1941.04
   1  -6  -260184.17 2091.42
  -1   6   258771.58 2074.01
  -1   6   1 3701.33  876.28
  -1   6   1 8558.80 1307.39
   1  -6  -1 7297.39 1277.61
   1  -6  -1 6088.96 1125.95
  -1   6   1 6581.92 1155.17
   1  -6  -1 4934.39 1056.22
   1  -5  -3 7845.54 1039.93
  -1   5   3 7942.89 1141.90
   1  -5  -2  802.89  628.14
   1  -5  -2  801.87  397.81
  -1   5   2  611.22  607.87
  -1   5   2  592.18  401.43
  -1   5   2  655.88  535.08
   1  -5  -1 6472.62  945.04
  -1   5   1 7389.27  896.05
   1  -5  -1 7615.01  966.56
   1  -5  -1 6559.65 1081.87
  -1   5   1 6652.78  915.24
  -1   5   1 6499.15  869.44
   1  -5  -1 6547.66  931.32
   1  -5   033600.65 1211.53
   1  -5   030882.62 1438.83
   1  -5   031757.83 1449.65
  -1   5   031015.69 1316.52
   1  -4  -3 3395.06  667.04
   1  -4  -3 3656.89  823.78
   1  -4  -3 3727.70  781.16
   1  -4  -3 3208.13  666.38
  -1   4   3 3652.13  741.34
  -1   4   2  360.17  338.90
  -1   4   2  489.93  410.86
   1  -4  -2  400.29  309.94
  -1   4   1 3287.25  546.38
   1  -4  -1 3878.63  724.52
   1  -4  -1 4054.43  677.41
  -1   4   1 3691.63  573.60
   1  -4  -1 4205.40  625.62
   1  -4  -1 3782.92  614.78
  -1   4   1 2438.96  468.64
   1  -4   0  254.86  345.00
   1  -4   0  323.55  371.89
  -1   4   0  261.28  232.27
   1  -3  -3  906.71  422.36
  -1   3   3  865.07  321.36
  -1   3   3  663.36  470.45
   1  -3  -3 1167.42  580.84
   1  -3  -3 1340.50  570.37
   1  -3  -219888.71  669.82
   1  -3  -220796.26  795.87
   1  -3  -217628.97  759.83
  -1   3   220472.17  750.25
  -1   3   221302.61  611.99
  -1   3   219455.55  807.63
   1  -3  -218655.92  777.87
   1  -3  -119735.46  703.35
   1  -3  -122226.95  709.43
   1  -3  -121822.32  787.42
  -1   3   122362.83  489.72
  -1   3   122320.94  804.59
  -1   3   121639.93  779.11
   1  -3  -120726.64  790.66
   1  -3  -120961.07  529.63
  -1   3   125917.70  661.17
   1  -3   011279.80  752.53
   1  -3   012485.32  685.72
   1  -3   012606.26  643.43
  -1   3   011925.63  687.29
  -1   2   310001.28  647.23
   1  -2  -310773.46  667.46
   1  -2  -311829.73  542.48
   1  -2  -311574.18  757.04
   1  -2  -280373.35 1159.63
   1  -2  -279299.04  854.02
   1  -2  -276287.09 1097.37
   1  -2  -275093.49 1124.79
  -1   2   279472.30 1140.96
  -1   2   274361.41  903.87
  -1   2   1 5318.79  360.58
   1  -2  -1 5246.25  316.64
   1  -2  -1 4963.72  354.93
   1  -2  -1 4715.39  360.83
  -1   2   1 5091.79  367.91
  -1   2   1 5239.81  332.28
  -1   1   2 312560.   1177.
  -1   1   2 320907.   1463.
   1  -1  -2 335868.   1380.
   1  -1  -2 319368.   1482.
   1  -1  -2 363542.   1083.
  -1   1   1   71.28   68.68
   1  -1  -1   60.61   61.43
   1  -1  -1   47.97   57.09
   1  -1  -1   85.25   83.45
  -1   1   1   63.19   62.49
   1  -1  -1   62.42   88.21
   1   0  -2 522520.   1727.
  -1   0   2 515824.   1714.
   1   0  -2 519703.   1739.
  -1   0   2 488777.   1694.
   1   0  -2 493227.   1719.
   1   0  -2 527869.   1774.
  -1   0   1 3704.44  155.51
  -1   0   1 3377.39  163.05
   1   0  -1 3495.73  159.98
  -1   0   1 3692.58  126.88
   1   0  -1 3797.63  135.95
   1   0  -1 3396.53  151.59
   1   0  -1 3582.44  155.94
  -1   0   1 3610.22  157.12
   1   1  -249903.14  696.00
  -1  -1   250838.17  673.06
   1   1  -246443.16  642.15
   1   1  -254441.13  707.44
  -1  -1   250686.96  679.94
  -1  -1   251423.17  692.61
  -1  -1   11057381.   1937.
   1   1  -11068911.   2098.
  -1  -1   11047030.   2072.
   1   1  -11046621.   2135.
   1   1   0 462030.   1764.
  -1  -1   0 436116.   1721.
  -1  -2   217580.39  610.09
   1   2  -218076.08  707.75
   1   2  -215360.43  629.01
  -1  -2   218479.58  704.93
  -1  -2   216920.18  443.04
  -1  -2   215094.09  623.60
  -1  -2   215382.95  568.28
   1   2  -214576.07  582.82
   1   2  -1 109408.    843.
  -1  -2   1 107093.    966.
  -1  -2   1 111617.    884.
  -1  -2   1 112658.    826.
  -1  -2   1 109375.    866.
  -1  -2   1 104386.    934.
   1   2  -1 102602.    958.
   1   2  -1 109694.    890.
  -1  -2   1 109426.    823.
   1   2   050220.20  828.91
  -1  -2   049928.37  792.83
   1   2   038697.40  765.77
  -1  -2   040371.32  749.70
   1   2   041939.23  809.00
  -1  -2   044198.68  781.22
   1   2   041310.84  598.14
  -1  -2   043054.17  606.18
  -1  -2   041161.77  671.68
   1   3  -2 358355.   1907.
  -1  -3   2 381764.   2338.
  -1  -3   2 366071.   1923.
  -1  -3   2 364079.   2223.
   1   3  -2 355143.   2186.
  -1  -3   2 362108.   1818.
   1   3  -157057.45  833.19
   1   3  -157854.03  945.98
  -1  -3   159274.11  932.97
   1   3  -153279.46 1060.61
   1   3  -152138.64  987.71
  -1  -3   155274.89 1021.72
  -1  -3   154122.94  990.00
  -1  -3   159145.02  935.42
  -1  -3   156628.84  843.49
   1   3  -161372.12  897.21
  -1  -3   159645.36  855.55
  -1  -3   0 229821.   1308.
   1   3   0 224989.   1788.
   1   3   0 228445.   1298.
   1   3   0 252254.   1908.
   1   3   0 252452.   1814.
  -1  -3   0 251007.   1811.
  -1  -3   0 209408.   1732.
  -1  -3   0 198951.   1625.
  -1  -3   0 220425.   1726.
   1   4  -2 8205.49  794.81
  -1  -4   2 8085.53  897.76
  -1  -4   2 7841.27  814.70
  -1  -4   171532.53 1353.79
   1   4  -166417.46 1280.00
   1   4  -172854.45 1426.96
   1   4  -169779.59 1398.77
  -1  -4   163413.89 1449.86
   1   4  -167970.16 1435.61
  -1  -4   166718.20 1255.07
  -1  -4   165960.59 1356.28
   1   4   0 7318.04  864.91
   1   4   0 7460.22  800.93
   1   4   0 7857.48  795.85
  -1  -4   0 6755.71  802.44
  -1  -4   0 7131.38  674.26
  -1  -4   0 7421.57  819.60
   1   4   151024.96 1501.67
  -1  -4  -149635.64 1364.74
  -1  -4  -151265.20 1465.54
  -1  -4  -149495.19 1272.71
   1   5  -210577.22 1061.01
  -1  -5   211831.97 1132.73
  -1  -5   211624.63  940.73
  -1  -5   1 5811.56  952.69
   1   5  -1 5464.29  876.15
   1   5  -1 5369.91  851.47
   1   5   0  290.62  392.87
  -1  -5   0  640.65  576.46
  -1  -5   0  781.33  531.20
   1   5   0  541.46  459.10
   1   5   0  513.41  359.17
  -1  -5   0  699.46  462.94
   1   5   130878.42 1503.69
  -1  -5  -127686.28 1409.35
  -1  -5  -128493.57 1525.05
   1   6  -1  485.45  516.76
   1   6  -1  131.26  396.26
  -1  -6   1  920.03  716.62
   1   6  -1  403.83  412.44
  -1  -6   1  883.91  757.27
  -1  -6   1  684.44  571.41
   1   6   0 2105.06  728.84
  -1  -6   0 2076.45  742.39
   1   6   0 2224.72  856.70
  -1  -6   0 2142.50  965.22
  -2   6   417535.35 1579.23
  -2   6   417051.25 1736.47
  -2   6   3 2393.64  869.26
  -2   6   3 1970.10  767.98
   2  -6  -3 1267.83  823.80
   2  -6  -3 1456.13  737.72
   2  -6  -3 2331.58  932.46
  -2   6   3 2097.05  807.10
  -2   6   220285.10 1559.51
  -2   6   219300.79 1558.31
   2  -6  -218526.66 1747.40
   2  -6  -221517.20 1707.58
   2  -6  -222905.64 1449.56
   2  -5  -4 5183.94 1143.71
  -2   5   4 4595.60 1054.58
  -2   5   353322.84 1914.56
  -2   5   353874.78 1764.11
   2  -5  -353468.06 1842.16
  -2   5   241616.52 1598.67
  -2   5   243939.92 1635.50
   2  -5  -240334.09 1608.98
  -2   5   239810.23 1582.15
   2  -5  -246369.21 1666.54
   2  -5  -236587.38 1712.61
  -2   4   4 1443.49  805.06
   2  -4  -4 1658.36  778.13
   2  -4  -4 1493.49  697.07
  -2   4   3 9243.85  875.12
  -2   4   3 9030.72  997.20
   2  -4  -3 8431.05  900.06
  -2   4   3 9624.68  977.26
   2  -4  -3 9702.95  966.44
   2  -4  -310025.49  878.89
  -2   4   213442.01  996.42
  -2   4   213626.39  990.18
   2  -4  -211876.93  841.43
   2  -4  -1 7919.14  798.24
   2  -4  -1 8704.85  923.23
   2  -4  -1 8398.33  942.23
  -2   4   1 8773.86  909.81
   2  -3  -442071.73 1314.51
  -2   3   450857.33 1481.68
  -2   3   447827.77 1332.74
   2  -3  -448332.76 1545.70
   2  -3  -450870.63 1514.17
   2  -3  -3 2550.37  545.14
   2  -3  -3 2466.20  532.59
  -2   3   3 2781.20  646.21
  -2   3   3 2984.41  639.08
   2  -3  -3 2915.17  578.17
   2  -3  -3 2549.95  539.98
  -2   3   3 2722.37  565.36
  -2   3   278849.90 1247.29
  -2   3   273296.41 1333.82
  -2   3   271984.89  988.65
   2  -3  -271505.54 1321.25
   2  -3  -269479.54 1356.95
  -2   3   274750.83 1310.24
   2  -3  -272634.87 1121.08
   2  -3  -269580.72 1257.40
  -2   3   1  635.26  376.12
   2  -3  -1  713.70  375.82
   2  -3  -1  664.97  485.59
   2  -2  -4 8975.47  741.11
  -2   2   4 9392.04  790.90
   2  -2  -410046.28  879.72
  -2   2   3  384.48  293.50
  -2   2   3  517.69  328.16
  -2   2   3  462.44  234.79
   2  -2  -3  661.21  270.94
   2  -2  -3  576.21  285.82
  -2   2   3  860.15  287.23
   2  -2  -3  377.07  244.12
   2  -2  -3  684.52  334.84
   2  -2  -3  684.17  313.38
  -2   2   2 4989.07  335.35
  -2   2   2 5477.77  506.94
  -2   2   2 4698.24  448.90
   2  -2  -2 4929.73  529.02
  -2   2   2 5244.62  508.90
   2  -2  -2 5247.23  477.85
   2  -2  -2 5188.75  530.55
   2  -2  -2 4781.62  454.25
   2  -2  -2 4621.19  341.92
   2  -2  -129323.04  930.26
  -2   2   128279.38  928.64
   2  -2  -126745.84  889.98
   2  -2  -128607.09  868.13
   2  -1  -4  177.23  249.90
   2  -1  -4  192.34  344.93
  -2   1   4  111.45  181.46
   2  -1  -4  168.68  230.26
  -2   1   4  139.85  181.58
  -2   1   319453.02  672.44
  -2   1   323014.36  662.88
   2  -1  -320809.58  686.36
  -2   1   318435.97  719.62
   2  -1  -319737.40  729.04
   2  -1  -319169.67  687.18
  -2   1   316052.28  562.15
   2  -1  -316429.38  384.44
   2  -1  -316634.43  512.58
   2  -1  -318080.61  793.24
   2  -1  -316316.82  620.69
  -2   1   210488.21  622.75
   2  -1  -2 8860.56  401.13
  -2   1   210324.66  517.53
  -2   1   210996.11  575.95
   2  -1  -2 9892.16  537.13
   2  -1  -210876.08  442.88
  -2   1   2 9058.30  267.46
   2  -1  -2 9302.42  443.08
   2  -1  -210025.25  534.29
   2  -1  -2 8822.56  507.10
  -2   1   2 9336.20  412.16
  -2   1   211480.08  445.49
   2   0  -4 129981.   1559.
   2   0  -4 134471.   1658.
  -2   0   4 132157.   1622.
  -2   0   4 128894.   1540.
   2   0  -4 137380.   1303.
   2   0  -3 111227.    719.
   2   0  -3 128208.   1409.
   2   0  -3 121009.   1317.
  -2   0   3 118117.   1261.
  -2   0   3 116316.   1263.
   2   0  -3 119466.   1031.
  -2   0   3 124678.   1261.
   2   0  -3 123237.   1356.
  -2   0   271065.03  850.23
  -2   0   280626.93  777.87
   2   0  -273329.52  722.38
  -2   0   275432.27  896.73
   2   0  -285927.69  841.51
  -2   0   274541.63  711.41
   2   0  -267940.02  823.36
   2   0  -279055.18  949.58
   2   0  -273182.52  872.01
  -2   0   265342.96  793.51
  -2   0   131465.00  693.75
   2   0  -129314.89  692.29
  -2   0   132820.21  679.91
   2   0  -133624.75  721.21
   2   0  -133896.57  696.01
   2   1  -447680.70 1194.73
  -2  -1   447125.18 1087.24
   2   1  -444924.20 1116.85
  -2  -1   444059.58 1123.34
   2   1  -452086.52 1079.58
  -2  -1   448905.95 1168.73
   2   1  -327546.66  806.59
  -2  -1   328276.39  766.99
   2   1  -324779.80  824.55
  -2  -1   324258.74  683.80
  -2  -1   323189.76  781.75
   2   1  -326058.30  835.44
   2   1  -323179.24  698.38
  -2  -1   325033.17  779.42
  -2  -1   2 9838.14  597.51
   2   1  -210712.91  598.78
   2   1  -211828.43  518.84
  -2  -1   213130.33  626.83
   2   1  -212074.61  409.08
  -2  -1   2 9615.49  583.78
   2   1  -211462.92  558.44
  -2  -1   211194.74  428.52
  -2  -1   2 8395.01  479.94
   2   1  -210580.75  614.61
   2   1  -2 9816.38  635.42
  -2  -1   117891.62  621.90
   2   1  -116459.87  608.68
  -2  -1   117865.07  614.45
   2   1  -118623.13  677.35
  -2  -1   119670.99  536.29
  -2  -1   118947.86  650.47
   2   1  -119366.94  725.18
   2   1  -118948.44  576.15
   2   2  -475221.79 1489.57
  -2  -2   487142.41 1334.14
  -2  -2   482753.76 1464.38
   2   2  -490462.62 1629.54
   2   2  -485594.41 1539.86
  -2  -2   489210.09 1518.08
   2   2  -3 1151.20  381.21
  -2  -2   3  912.80  366.16
   2   2  -3  924.00  391.48
  -2  -2   3  949.27  366.89
   2   2  -3 1196.68  435.61
  -2  -2   3 1054.05  369.10
   2   2  -2 2538.94  283.91
  -2  -2   2 2657.76  364.33
  -2  -2   2 2393.68  425.24
   2   2  -2 2315.28  398.10
  -2  -2   2 2013.16  409.54
   2   2  -2 2307.39  472.61
  -2  -2   2 2131.45  347.70
  -2  -2   2 2288.22  447.50
   2   2  -2 2036.60  437.19
   2   2  -2 2428.00  431.34
   2   2  -2 2435.64  351.69
  -2  -2   1 7966.64  588.38
  -2  -2   1 5875.72  505.03
  -2  -2   1 6185.73  359.22
  -2  -2   1 5421.26  493.53
  -2  -2   1 5684.15  563.89
   2   3  -326524.71 1059.04
   2   3  -324271.29  985.85
   2   3  -323467.03 1082.10
  -2  -3   327916.82  985.18
  -2  -3   324741.60 1091.90
  -2  -3   327068.98 1016.49
   2   3  -2 101125.   1398.
   2   3  -2 100289.   1500.
  -2  -3   298197.91 1431.58
  -2  -3   299782.56 1394.45
   2   3  -295757.34 1513.75
  -2  -3   2 100595.   1450.
  -2  -3   297229.36 1518.64
   2   3  -297159.33 1410.64
  -2  -3   112050.06  797.42
   2   3  -1 9825.23  790.23
   2   3  -1 9811.36  755.04
  -2  -3   1 8695.22  723.87
   2   3  -110050.12  768.26
  -2  -3   110398.89  820.18
  -2  -3   1 6848.85  482.14
   2   3  -1 8991.26  600.94
  -2  -3   1 9732.23  629.87
   2   4  -3 109134.   1964.
  -2  -4   3 113755.   1811.
   2   4  -3 107095.   1946.
  -2  -4   3 116006.   1976.
  -2  -4   3 109487.   1991.
   2   4  -3 112547.   1795.
   2   4  -2 3255.36  695.94
   2   4  -2 3214.54  759.08
  -2  -4   2 3207.44  838.64
  -2  -4   2 3102.68  741.87
   2   4  -1 187482.   2463.
   2   4  -1 176450.   2268.
  -2  -4   1 178926.   2242.
  -2  -4   1 177963.   2286.
   2   5  -3 5926.85 1036.64
   2   5  -3 5417.88 1093.46
  -2  -5   3 5943.27 1034.74
  -2  -5   3 4250.48  842.00
   2   5  -2 2407.31  889.95
   2   5  -2 3013.79  975.99
  -2  -5   2 3310.38  880.57
   2   5  -1  742.68  604.04
   2   5  -1  433.01  559.71
  -2  -5   1  301.47  424.65
  -2  -5   1  596.58  486.28
   2   6  -335812.39 1899.14
   2   6  -330930.50 1852.41
   2   6  -2 7328.19 1242.68
   2   6  -2 8893.60 1169.97
  -2  -6   2 8682.77 1363.55
  -2  -6   2 6001.46 1115.98
   2   6  -1 6925.23 1071.30
  -2  -6   1 7031.14 1387.30
  -2  -6   1 8317.82 1333.39
  -3   6   417669.47 1663.48
  -3   5   512946.29 1383.01
   3  -5  -513403.67 1399.76
  -3   5   512866.34 1357.86
   3  -5  -515844.81 1851.51
  -3   5   4 2514.75  987.67
  -3   5   4 3339.21 1051.96
   3  -5  -4 2019.74  911.72
   3  -5  -4 1826.32  784.87
  -3   5   4 1547.60  745.34
   3  -5  -4 1957.46  963.95
  -3   5   320623.44 1487.66
  -3   5   319792.55 1586.19
   3  -5  -317438.25 1376.24
   3  -5  -316857.49 1457.36
  -3   5   321960.81 1400.92
   3  -5  -318713.99 1514.02
  -3   4   5  288.23  527.42
  -3   4   5  531.89  647.88
   3  -4  -5  243.20  483.64
   3  -4  -5  247.94  471.07
   3  -4  -4 2259.48  699.01
  -3   4   4 1829.39  673.49
   3  -4  -4 1397.27  653.40
   3  -4  -4 1851.17  778.74
  -3   4   4 2036.54  790.48
  -3   4   4 2208.60  860.80
   3  -4  -4 2296.54  878.41
  -3   4   325650.09 1407.95
   3  -4  -325460.43 1437.65
  -3   4   329423.34 1306.30
   3  -4  -329225.77 1460.41
   3  -4  -329952.68 1364.09
   3  -4  -329096.35 1437.89
   3  -3  -5 4720.97 1000.03
  -3   3   5 4382.89  807.97
   3  -3  -5 5222.57 1010.57
  -3   3   461329.28 1546.39
  -3   3   470980.25 1757.00
  -3   3   465046.61 1880.69
   3  -3  -471574.59 1974.07
   3  -3  -459532.31 1477.50
   3  -3  -470377.55 1857.45
   3  -3  -473712.92 1942.68
   3  -3  -314220.30  900.58
  -3   3   315035.80  993.10
   3  -3  -316422.62 1133.77
   3  -3  -316572.75 1007.17
   3  -3  -314989.37 1026.83
   3  -3  -225436.95 1070.26
  -3   3   226552.40 1247.98
   3  -3  -226045.38 1106.07
   3  -2  -559381.41 1797.68
  -3   2   560763.32 1670.87
   3  -2  -557254.07 1795.52
  -3   2   4 1291.78  545.58
  -3   2   4 1099.61  607.15
   3  -2  -4  679.78  453.64
   3  -2  -4 1076.24  556.63
   3  -2  -3 262302.   1943.
  -3   2   3 243022.   2152.
  -3   2   3 263434.   1835.
  -3   2   3 260190.   2169.
   3  -2  -3 255748.   2226.
   3  -2  -3 240630.   2160.
   3  -2  -3 259236.   1879.
  -3   2   248074.43 1197.23
   3  -2  -242529.83 1223.66
   3  -2  -244746.64  940.76
  -3   2   244700.75  917.65
   3  -2  -246483.04 1220.10
   3  -2  -242964.36  994.59
  -3   1   5 7600.40  996.05
   3  -1  -5 8744.43  937.89
  -3   1   5 7988.03  830.70
   3  -1  -5 7594.85  878.88
  -3   1   4 9551.54  821.76
  -3   1   4 9175.43  724.57
   3  -1  -4 9250.89  774.33
   3  -1  -410095.12  841.63
   3  -1  -4 9203.98  862.01
  -3   1   410289.59  727.41
  -3   1   3  475.46  295.64
  -3   1   3  179.33  242.70
  -3   1   3  318.95  388.66
  -3   1   3  269.73  209.06
   3  -1  -3  242.35  239.68
   3  -1  -3  108.15  163.75
   3  -1  -3  457.15  359.91
  -3   1   2 8564.71  764.64
   3  -1  -2 8642.16  695.04
  -3   1   2 9397.20  489.81
   3  -1  -2 8624.00  644.64
  -3   1   2 8504.56  643.82
   3  -1  -2 6809.74  751.49
   3  -1  -2 8092.85  448.61
   3   0  -5 1404.27  730.40
  -3   0   5 1360.12  546.04
   3   0  -5 1534.04  688.33
   3   0  -4 4449.42  693.31
  -3   0   4 3417.03  578.70
  -3   0   4 4784.61  551.65
   3   0  -4 5967.04  633.92
  -3   0   4 6933.30  716.86
   3   0  -4 7703.28  630.24
  -3   0   4 6696.26  680.86
  -3   0   4 5417.07  583.45
   3   0  -4 3273.73  482.73
   3   0  -4 2644.32  540.79
  -3   0   3 2819.66  550.37
  -3   0   3 2841.21  536.23
  -3   0   3 4170.44  554.43
  -3   0   3 3233.51  569.71
   3   0  -3 2753.11  438.94
   3   0  -3 3347.00  424.84
  -3   0   3 2918.61  418.51
   3   0  -3 3215.46  580.48
   3   0  -3 3428.69  635.08
  -3   0   2 6962.22  676.09
  -3   0   2 5853.81  654.75
   3   0  -2 5943.66  470.08
  -3   0   2 6751.33  506.76
   3   0  -2 6430.41  701.36
   3   0  -2 6446.46  708.96
  -3   0   2 6130.02  548.23
   3   0  -2 5630.27  677.43
   3   1  -5 9858.03 1082.05
  -3  -1   5 9259.03  952.88
  -3  -1   510785.19  983.97
   3   1  -5 8300.01  965.50
  -3  -1   5 8689.00  937.59
   3   1  -5 8980.02  827.40
   3   1  -5 8108.92  947.61
   3   1  -4 5248.62  759.66
  -3  -1   4 5422.04  713.98
  -3  -1   4 5217.73  719.41
  -3  -1   4 5613.56  697.18
  -3  -1   4 5572.35  677.94
   3   1  -4 4397.95  575.07
   3   1  -4 4202.79  737.56
   3   1  -4 2704.10  554.85
  -3  -1   3 2069.55  608.52
  -3  -1   3 1929.23  568.57
   3   1  -3 1705.20  563.97
  -3  -1   3 1757.08  509.02
   3   1  -3  988.21  442.45
   3   1  -3 2123.83  593.49
   3   1  -3 2222.17  480.16
  -3  -1   234648.61 1067.45
   3   1  -238657.34 1076.80
  -3  -1   236739.14  746.94
  -3  -1   236086.14  931.85
   3   1  -235704.29 1161.33
   3   1  -234262.50 1073.44
  -3  -1   235814.59  983.18
   3   1  -238281.29  995.74
  -3  -2   5 8761.16  857.49
  -3  -2   5 7454.58  992.37
  -3  -2   5 8523.08 1000.89
   3   2  -5 6052.33  883.90
   3   2  -5 8392.14 1068.90
   3   2  -5 7965.15 1029.17
   3   2  -4 1806.25  587.86
   3   2  -4 1796.03  664.57
   3   2  -4 1902.84  586.52
  -3  -2   4 1592.22  674.02
  -3  -2   4 1257.23  587.51
   3   2  -4 1166.41  620.99
  -3  -2   4 1409.51  560.64
  -3  -2   321283.49 1042.65
  -3  -2   321147.19  997.06
   3   2  -319370.71 1074.66
  -3  -2   320359.08 1015.33
   3   2  -320679.28 1002.86
   3   2  -319355.98 1047.06
   3   2  -2  464.13  455.91
   3   2  -2  437.68  227.71
  -3  -2   2  697.70  401.03
  -3  -2   2  743.38  464.64
   3   2  -2  711.54  509.81
  -3  -2   2  679.46  474.59
  -3  -3   572116.07 1895.65
   3   3  -563915.26 1945.96
   3   3  -571449.59 2010.77
   3   3  -410559.80 1138.56
  -3  -3   411247.03  999.31
  -3  -3   411459.24 1196.50
   3   3  -3 8137.78  912.55
   3   3  -311743.74  912.59
  -3  -3   3 9151.12  907.02
   3   3  -310155.00 1088.36
  -3  -3   3 9346.56  888.49
  -3  -3   3 9631.16  811.58
  -3  -3   3 9538.84 1073.29
   3   3  -3 8370.36  938.04
  -3  -3   2 2055.43  701.70
  -3  -3   2 1963.08  738.35
   3   3  -2 1279.24  610.47
   3   3  -2 1051.41  573.65
  -3  -3   2 1882.77  541.19
   3   3  -2 1730.77  612.10
  -3  -3   2 1560.41  629.34
  -3  -4   411796.28 1142.68
   3   4  -410906.91 1266.48
  -3  -4   413128.42 1222.44
  -3  -4   411336.18 1226.38
   3   4  -329624.12 1543.50
   3   4  -328276.97 1357.99
  -3  -4   331341.62 1367.97
   3   4  -326523.47 1367.48
  -3  -4   326570.76 1458.58
  -3  -4   328909.52 1318.26
   3   4  -327347.33 1459.23
   3   4  -2 4290.82 1033.38
   3   4  -2 4092.87  849.70
  -3  -4   2 3107.42  705.30
  -3  -4   2 3577.32  978.45
   3   5  -4 1917.96  877.08
   3   5  -4 2372.66  841.67
  -3  -5   4 1282.53  822.00
   3   5  -3  862.08  629.25
   3   5  -3 1156.28  696.57
  -3  -5   3  250.89  473.51
  -3  -5   3  573.83  629.81
   3   5  -236446.52 1928.69
   3   5  -236557.50 1854.80
  -3  -5   238317.82 1857.52
  -3  -5   237061.93 1950.27
   3   6  -3 1178.56  879.74
  -3  -6   3  896.20  714.77
  -4   4   6 1600.41  909.97
  -4   4   6 1079.05  855.60
  -4   4   5  222.39  682.51
   4  -4  -5  483.98  693.89
  -4   4   5  779.15  806.53
   4  -4  -5  647.76  779.66
  -4   4   4 3688.96 1176.23
   4  -4  -4 1448.03  908.47
   4  -4  -4 1777.10  835.35
  -4   3   615934.47 1473.55
  -4   3   614812.76 1658.07
   4  -3  -615903.76 1653.83
  -4   3   5 7821.22 1029.16
  -4   3   5 9012.54 1208.11
   4  -3  -513667.47 1553.79
   4  -3  -510585.25 1489.73
  -4   3   4 1160.95  709.77
  -4   3   4  564.25  541.70
   4  -3  -4  473.16  541.36
   4  -3  -4  248.45  419.23
   4  -2  -6 5481.30 1034.17
  -4   2   6 5027.06 1036.92
   4  -2  -6 6274.89 1163.88
  -4   2   565130.93 1887.17
  -4   2   565461.95 1734.26
   4  -2  -563396.72 1936.95
   4  -2  -560622.98 1819.90
  -4   2   420239.58 1331.32
  -4   2   417718.96 1232.73
   4  -2  -416815.18 1307.40
   4  -2  -417512.39 1299.44
  -4   1   6 4438.56  726.52
  -4   1   6 5018.02  885.71
   4  -1  -6 4300.43  958.31
  -4   1   510349.87 1146.59
   4  -1  -510598.20 1066.95
  -4   1   511955.63 1186.08
  -4   1   510750.13  987.82
  -4   1   510615.55 1096.18
   4  -1  -510510.97 1099.62
   4  -1  -5 8823.48 1023.97
   4  -1  -5 9972.48 1299.45
  -4   1   493114.96 1989.04
  -4   1   4 102743.   1942.
  -4   1   4 110586.   1885.
  -4   1   492794.67 1702.79
   4  -1  -496538.69 1835.02
   4  -1  -4 101903.   2004.
   4  -1  -486183.98 1944.55
   4  -1  -490578.05 1850.17
   4  -1  -385428.90 1660.45
   4  -1  -381204.23 1631.44
  -4   1   379177.77 1622.79
   4  -1  -374480.11 1739.22
   4   0  -610883.42 1315.22
  -4   0   611996.51 1239.11
  -4   0   6 9495.57 1120.44
  -4   0   6 9093.50  981.23
   4   0  -6 9878.52 1250.36
   4   0  -6 9331.60 1304.65
  -4   0   5  252.36  433.84
   4   0  -5  277.69  421.82
  -4   0   5  278.28  392.44
  -4   0   5  267.65  384.51
  -4   0   412242.26 1063.04
  -4   0   411263.65 1109.31
  -4   0   411345.99 1059.06
   4   0  -410538.31 1043.46
   4   0  -413366.83 1116.77
   4   0  -411183.25 1022.28
   4   0  -3  124.52  307.15
  -4   0   3  549.08  317.90
  -4   0   3  969.53  570.80
   4   0  -3  533.28  406.17
   4   1  -6 5499.55 1011.57
  -4  -1   6 6734.75 1341.69
  -4  -1   6 4675.25 1039.51
  -4  -1   6 5042.36  978.72
   4   1  -6 5188.82 1053.25
   4   1  -6 5678.90 1182.79
  -4  -1   550677.95 1678.53
  -4  -1   552849.32 1751.66
   4   1  -547004.83 1704.78
  -4  -1   548819.73 1640.90
   4   1  -547695.89 1811.18
   4   1  -549836.42 1743.87
   4   1  -4 1404.16  576.83
  -4  -1   4 1590.26  692.73
  -4  -1   4 1438.38  628.59
   4   1  -4 1348.68  533.87
  -4  -1   329093.09 1345.80
   4   1  -325478.22 1277.78
   4   1  -330866.34 1307.87
   4   1  -337383.16 1469.02
  -4  -1   346261.83 1447.69
  -4  -2   6  499.53  700.21
  -4  -2   6  803.62  668.91
   4   2  -6  322.55  607.96
   4   2  -6  599.08  593.09
  -4  -2   5  259.78  396.73
  -4  -2   5   55.92  270.48
   4   2  -5  230.12  378.23
  -4  -2   5  670.78  630.64
  -4  -2   5  632.43  557.50
  -4  -2   4 1736.66  714.91
   4   2  -4 1852.99  818.82
   4   2  -4 2134.86  856.56
  -4  -2   4 1816.12  645.51
  -4  -2   4 2496.52  876.05
   4   2  -4 1168.52  824.92
  -4  -2   319263.71 1330.82
  -4  -2   320160.80 1384.97
   4   2  -322002.90 1547.77
   4   2  -318017.42 1410.56
  -4  -2   319935.45 1355.90
   4   2  -318284.67 1384.31
  -4  -3   5  631.09  619.01
   4   3  -5  993.32  660.11
   4   3  -5  806.77  570.97
  -4  -3   5  454.54  564.48
   4   3  -4 8927.83 1209.97
  -4  -3   4 8750.50 1352.33
  -4  -3   4 9552.21 1137.23
  -4  -3   4 8178.99  977.85
   4   3  -4 8415.70 1290.57
   4   3  -4 8165.93 1136.93
  -4  -3   3  527.38  531.31
  -4  -3   3  590.98  647.89
   4   3  -3  808.26  637.55
  -4  -4   5 6019.34 1179.74
   4   4  -5 5621.59 1246.49
   4   4  -5 5936.19 1222.66
  -4  -4   5 6576.23 1249.99
  -4  -4   4 4950.24 1215.11
   4   4  -4 4521.76 1094.14
   4   4  -4 4460.91 1175.34
  -4  -4   3  394.30  694.75
  -4  -4   3  336.77  522.07
  -5   3   6 7124.94 1278.30
  -5   3   6 7093.51 1439.52
   5  -3  -6 5957.09 1091.01
   5  -3  -5  191.79  561.63
  -5   2   6 6672.18 1303.74
  -5   2   6 6165.03 1092.58
   5  -2  -6 6333.85 1172.80
   5  -2  -6 6560.91 1278.31
  -5   2   520188.88 1494.19
   5  -2  -520473.26 1563.97
   5  -2  -521688.36 1802.75
   5  -1  -7 1700.73  952.23
  -5   1   7 1710.18  871.75
  -5   1   613392.65 1412.96
  -5   1   612465.91 1570.77
  -5   1   611693.18 1359.13
   5  -1  -610557.59 1362.97
   5  -1  -610817.46 1267.29
   5  -1  -610264.28 1341.77
   5  -1  -511382.93 1376.07
  -5   1   510996.03 1390.10
  -5   1   510477.57 1247.42
   5  -1  -5 9008.76 1275.32
  -5   1   5 9561.19 1214.83
   5  -1  -511178.64 1588.25
  -5   0   7 8734.88 1406.84
  -5   0   7 9782.32 1383.48
   5   0  -7 8694.62 1358.03
  -5   0   6  304.59  641.25
  -5   0   6  427.31  520.11
   5   0  -6  340.87  583.00
   5   0  -6  282.22  554.22
   5   0  -5 1584.35  692.07
  -5   0   5 2855.04  905.39
  -5   0   5 2980.35  945.37
  -5   0   5 3125.47  932.41
   5   0  -5 2190.44  875.43
   5   0  -5 1868.24  912.74
  -5  -1   6  671.37  701.39
   5   1  -6  831.65  769.52
  -5  -1   6  725.71  726.54
   5   1  -6  588.04  636.45
   5   1  -543246.62 2072.99
  -5  -1   547736.03 1905.29
  -5  -1   545560.82 1862.87
  -5  -1   545412.13 2003.60
   5   1  -542459.84 2091.03
   5   1  -548022.50 2004.20
  -5  -2   638950.38 2211.20
  -5  -2   636072.68 2046.02
   5   2  -633708.26 2085.32
   5   2  -635808.98 2128.41
   5   2  -5 1657.26 1106.15
  -5  -2   5 1557.18  914.43
   5   2  -5  954.83  607.49
   5   2  -5  890.81  762.39
  -5  -2   5 1135.87  768.98
  -5  -2   5  962.91  778.81
   5   3  -6  370.30  713.20
  -5  -3   6  825.11  775.99
  -5  -3   5  520.07  721.03
  -5  -3   5  457.72  572.98
   5   3  -5  274.91  551.46
  -5  -3   5  169.19  551.84
;
_shelx_hkl_checksum              19508
_olex2_submission_special_instructions 'No special instructions were received'
loop_
_space_group_symop_operation_xyz
'x, y, z'
'-x, -y, -z'
loop_
_atom_site_label
_atom_site_type_symbol
_atom_site_fract_x
_atom_site_fract_y
_atom_site_fract_z
_atom_site_U_iso_or_equiv
_atom_site_adp_type
_atom_site_occupancy
_atom_site_site_symmetry_order
_atom_site_calc_flag
_atom_site_refinement_flags_posn
_atom_site_refinement_flags_adp
_atom_site_refinement_flags_occupancy
_atom_site_disorder_assembly
_atom_site_disorder_group
O1 O 0.5003(10) 0.2063(3) 0.3186(9) 0.0240(8) Uiso 1 1 d . . . . .
C1 C 0.5440(16) 0.4379(5) 0.2617(14) 0.0224(8) Uiso 1 1 d . . . . .
H11 H 0.619886 0.424228 0.149405 0.027 Uiso 1 1 calc R U . . .
H12 H 0.674185 0.549334 0.365025 0.027 Uiso 1 1 calc R U . . .
C2 C 0.2853(16) 0.5315(6) 0.2166(13) 0.0257(9) Uiso 1 1 d . . . . .
H21 H 0.164595 0.431191 0.104563 0.039 Uiso 1 1 calc R U . . .
H23 H 0.319056 0.694628 0.191837 0.039 Uiso 1 1 calc R U . . .
H22 H 0.202190 0.530086 0.323708 0.039 Uiso 1 1 calc R U . . .
C3 C 0.7453(17) 0.0991(5) 0.3606(15) 0.0253(9) Uiso 1 1 d . . . . .
H31 H 0.719288 -0.027435 0.437150 0.030 Uiso 1 1 calc R U . . .
H32 H 0.895743 0.221737 0.436015 0.030 Uiso 1 1 calc R U . . .
C4 C 0.8184(17) -0.0086(6) 0.1773(15) 0.0267(10) Uiso 1 1 d . . . . .
H41 H 0.679656 -0.142617 0.109732 0.040 Uiso 1 1 calc R U . . .
H43 H 0.991835 -0.064044 0.210200 0.040 Uiso 1 1 calc R U . . .
H42 H 0.829900 0.113155 0.096428 0.040 Uiso 1 1 calc R U . . .
loop_
_atom_type_symbol
_atom_type_description
_atom_type_scat_dispersion_real
_atom_type_scat_dispersion_imag
_atom_type_scat_source
C C 0.0033 0.0016 'International Tables Vol C Tables 4.2.6.8 and 6.1.1.4'
H H 0.0000 0.0000 'International Tables Vol C Tables 4.2.6.8 and 6.1.1.4'
O O 0.0106 0.0060 'International Tables Vol C Tables 4.2.6.8 and 6.1.1.4'
loop_
_geom_angle_atom_site_label_1
_geom_angle_atom_site_label_2
_geom_angle_atom_site_label_3
_geom_angle
_geom_angle_site_symmetry_1
_geom_angle_site_symmetry_3
_geom_angle_publ_flag
C1 O1 C3 113.2(3) . . ?
O1 C1 H11 109.7 . . ?
O1 C1 H12 109.7 . . ?
O1 C1 C2 109.9(3) . . ?
H11 C1 H12 108.2 . . ?
C2 C1 H11 109.7 . . ?
C2 C1 H12 109.7 . . ?
C1 C2 H21 109.5 . . ?
C1 C2 H23 109.5 . . ?
C1 C2 H22 109.5 . . ?
H21 C2 H23 109.5 . . ?
H21 C2 H22 109.5 . . ?
H23 C2 H22 109.5 . . ?
O1 C3 H31 109.3 . . ?
O1 C3 H32 109.3 . . ?
O1 C3 C4 111.7(9) . . ?
H31 C3 H32 107.9 . . ?
C4 C3 H31 109.3 . . ?
C4 C3 H32 109.3 . . ?
C3 C4 H41 109.5 . . ?
C3 C4 H43 109.5 . . ?
C3 C4 H42 109.5 . . ?
H41 C4 H43 109.5 . . ?
H41 C4 H42 109.5 . . ?
H43 C4 H42 109.5 . . ?
loop_
_geom_bond_atom_site_label_1
_geom_bond_atom_site_label_2
_geom_bond_distance
_geom_bond_site_symmetry_2
_geom_bond_publ_flag
O1 C1 1.423(6) . ?
O1 C3 1.437(9) . ?
C1 H11 0.9700 . ?
C1 H12 0.9700 . ?
C1 C2 1.460(11) . ?
C2 H21 0.9600 . ?
C2 H23 0.9600 . ?
C2 H22 0.9600 . ?
C3 H31 0.9700 . ?
C3 H32 0.9700 . ?
C3 C4 1.524(8) . ?
C4 H41 0.9600 . ?
C4 H43 0.9600 . ?
C4 H42 0.9600 . ?
loop_
_geom_torsion_atom_site_label_1
_geom_torsion_atom_site_label_2
_geom_torsion_atom_site_label_3
_geom_torsion_atom_site_label_4
_geom_torsion
_geom_torsion_site_symmetry_1
_geom_torsion_site_symmetry_2
_geom_torsion_site_symmetry_3
_geom_torsion_site_symmetry_4
_geom_torsion_publ_flag
C1 O1 C3 C4 -77.6(5) . . . . ?
C3 O1 C1 C2 178.5(6) . . . . ?
